189
Zn27 In27 Ga27 O108
Zn 1.649500 0.952339 3.033806
Zn 0.000000 3.809357 3.033806
Zn -1.649500 6.666375 3.033806
Zn 4.948500 0.952339 3.033806
Zn 3.299000 3.809357 3.033806
Zn 1.649500 6.666375 3.033806
Zn 8.247500 0.952339 3.033806
Zn 6.598000 3.809357 3.033806
Zn 4.948500 6.666375 3.033806
Zn 0.000000 1.904679 23.067194
Zn -1.649500 4.761696 23.067194
Zn -3.299000 7.618714 23.067194
Zn 3.299000 1.904679 23.067194
Zn 1.649500 4.761696 23.067194
Zn 0.000000 7.618714 23.067194
Zn 6.598000 1.904679 23.067194
Zn 4.948500 4.761696 23.067194
Zn 3.299000 7.618714 23.067194
Zn 0.000000 1.904679 11.734140
Zn -1.649500 4.761696 11.734140
Zn -3.299000 7.618714 11.734140
Zn 3.299000 1.904679 11.734140
Zn 1.649500 4.761696 11.734140
Zn 0.000000 7.618714 11.734140
Zn 6.598000 1.904679 11.734140
Zn 4.948500 4.761696 11.734140
Zn 3.299000 7.618714 11.734140
In 0.000000 0.000000 0.000000
In -1.649500 2.857018 0.000000
In -3.299000 5.714036 0.000000
In 3.299000 0.000000 0.000000
In 1.649500 2.857018 0.000000
In 0.000000 5.714036 0.000000
In 6.598000 0.000000 0.000000
In 4.948500 2.857018 0.000000
In 3.299000 5.714036 0.000000
In 1.649500 0.952339 8.700333
In 0.000000 3.809357 8.700333
In -1.649500 6.666375 8.700333
In 4.948500 0.952339 8.700333
In 3.299000 3.809357 8.700333
In 1.649500 6.666375 8.700333
In 8.247500 0.952339 8.700333
In 6.598000 3.809357 8.700333
In 4.948500 6.666375 8.700333
In 0.000000 1.904679 17.400667
In -1.649500 4.761696 17.400667
In -3.299000 7.618714 17.400667
In 3.299000 1.904679 17.400667
In 1.649500 4.761696 17.400667
In 0.000000 7.618714 17.400667
In 6.598000 1.904679 17.400667
In 4.948500 4.761696 17.400667
In 3.299000 7.618714 17.400667
Ga 0.000000 0.000000 5.666527
Ga -1.649500 2.857018 5.666527
Ga -3.299000 5.714036 5.666527
Ga 3.299000 0.000000 5.666527
Ga 1.649500 2.857018 5.666527
Ga 0.000000 5.714036 5.666527
Ga 6.598000 0.000000 5.666527
Ga 4.948500 2.857018 5.666527
Ga 3.299000 5.714036 5.666527
Ga 0.000000 0.000000 20.434473
Ga -1.649500 2.857018 20.434473
Ga -3.299000 5.714036 20.434473
Ga 3.299000 0.000000 20.434473
Ga 1.649500 2.857018 20.434473
Ga 0.000000 5.714036 20.434473
Ga 6.598000 0.000000 20.434473
Ga 4.948500 2.857018 20.434473
Ga 3.299000 5.714036 20.434473
Ga 1.649500 0.952339 14.366860
Ga 0.000000 3.809357 14.366860
Ga -1.649500 6.666375 14.366860
Ga 4.948500 0.952339 14.366860
Ga 3.299000 3.809357 14.366860
Ga 1.649500 6.666375 14.366860
Ga 8.247500 0.952339 14.366860
Ga 6.598000 3.809357 14.366860
Ga 4.948500 6.666375 14.366860
O 0.000000 0.000000 3.346148
O -1.649500 2.857018 3.346148
O -3.299000 5.714036 3.346148
O 3.299000 0.000000 3.346148
O 1.649500 2.857018 3.346148
O 0.000000 5.714036 3.346148
O 6.598000 0.000000 3.346148
O 4.948500 2.857018 3.346148
O 3.299000 5.714036 3.346148
O 0.000000 0.000000 22.754852
O -1.649500 2.857018 22.754852
O -3.299000 5.714036 22.754852
O 3.299000 0.000000 22.754852
O 1.649500 2.857018 22.754852
O 0.000000 5.714036 22.754852
O 6.598000 0.000000 22.754852
O 4.948500 2.857018 22.754852
O 3.299000 5.714036 22.754852
O 1.649500 0.952339 12.046481
O 0.000000 3.809357 12.046481
O -1.649500 6.666375 12.046481
O 4.948500 0.952339 12.046481
O 3.299000 3.809357 12.046481
O 1.649500 6.666375 12.046481
O 8.247500 0.952339 12.046481
O 6.598000 3.809357 12.046481
O 4.948500 6.666375 12.046481
O 1.649500 0.952339 5.354185
O 0.000000 3.809357 5.354185
O -1.649500 6.666375 5.354185
O 4.948500 0.952339 5.354185
O 3.299000 3.809357 5.354185
O 1.649500 6.666375 5.354185
O 8.247500 0.952339 5.354185
O 6.598000 3.809357 5.354185
O 4.948500 6.666375 5.354185
O 0.000000 1.904679 20.746815
O -1.649500 4.761696 20.746815
O -3.299000 7.618714 20.746815
O 3.299000 1.904679 20.746815
O 1.649500 4.761696 20.746815
O 0.000000 7.618714 20.746815
O 6.598000 1.904679 20.746815
O 4.948500 4.761696 20.746815
O 3.299000 7.618714 20.746815
O 0.000000 1.904679 14.054519
O -1.649500 4.761696 14.054519
O -3.299000 7.618714 14.054519
O 3.299000 1.904679 14.054519
O 1.649500 4.761696 14.054519
O 0.000000 7.618714 14.054519
O 6.598000 1.904679 14.054519
O 4.948500 4.761696 14.054519
O 3.299000 7.618714 14.054519
O 0.000000 0.000000 7.642373
O -1.649500 2.857018 7.642373
O -3.299000 5.714036 7.642373
O 3.299000 0.000000 7.642373
O 1.649500 2.857018 7.642373
O 0.000000 5.714036 7.642373
O 6.598000 0.000000 7.642373
O 4.948500 2.857018 7.642373
O 3.299000 5.714036 7.642373
O 0.000000 0.000000 18.458627
O -1.649500 2.857018 18.458627
O -3.299000 5.714036 18.458627
O 3.299000 0.000000 18.458627
O 1.649500 2.857018 18.458627
O 0.000000 5.714036 18.458627
O 6.598000 0.000000 18.458627
O 4.948500 2.857018 18.458627
O 3.299000 5.714036 18.458627
O 1.649500 0.952339 16.342706
O 0.000000 3.809357 16.342706
O -1.649500 6.666375 16.342706
O 4.948500 0.952339 16.342706
O 3.299000 3.809357 16.342706
O 1.649500 6.666375 16.342706
O 8.247500 0.952339 16.342706
O 6.598000 3.809357 16.342706
O 4.948500 6.666375 16.342706
O 1.649500 0.952339 1.057960
O 0.000000 3.809357 1.057960
O -1.649500 6.666375 1.057960
O 4.948500 0.952339 1.057960
O 3.299000 3.809357 1.057960
O 1.649500 6.666375 1.057960
O 8.247500 0.952339 1.057960
O 6.598000 3.809357 1.057960
O 4.948500 6.666375 1.057960
O 0.000000 1.904679 25.043040
O -1.649500 4.761696 25.043040
O -3.299000 7.618714 25.043040
O 3.299000 1.904679 25.043040
O 1.649500 4.761696 25.043040
O 0.000000 7.618714 25.043040
O 6.598000 1.904679 25.043040
O 4.948500 4.761696 25.043040
O 3.299000 7.618714 25.043040
O 0.000000 1.904679 9.758294
O -1.649500 4.761696 9.758294
O -3.299000 7.618714 9.758294
O 3.299000 1.904679 9.758294
O 1.649500 4.761696 9.758294
O 0.000000 7.618714 9.758294
O 6.598000 1.904679 9.758294
O 4.948500 4.761696 9.758294
O 3.299000 7.618714 9.758294