Zn27 In27 Ga27 O108
1.0
   9.8970000000000002    0.0000000000000000    0.0000000000000006
  -4.9484999999999975    8.5710534212545912    0.0000000000000006
   0.0000000000000000    0.0000000000000000   26.1009999999999991
Zn In Ga O
27 27 27 108
direct
   0.2222222222222222    0.1111111111111111    0.1162333300000000 Zn
   0.2222222222222222    0.4444444444444445    0.1162333300000000 Zn
   0.2222222222222222    0.7777777777777778    0.1162333300000000 Zn
   0.5555555555555556    0.1111111111111111    0.1162333300000000 Zn
   0.5555555555555556    0.4444444444444445    0.1162333300000000 Zn
   0.5555555555555556    0.7777777777777778    0.1162333300000000 Zn
   0.8888888888888888    0.1111111111111111    0.1162333300000000 Zn
   0.8888888888888888    0.4444444444444445    0.1162333300000000 Zn
   0.8888888888888888    0.7777777777777778    0.1162333300000000 Zn
   0.1111111111111111    0.2222222222222222    0.8837666699999999 Zn
   0.1111111111111111    0.5555555555555556    0.8837666699999999 Zn
   0.1111111111111111    0.8888888888888890    0.8837666699999999 Zn
   0.4444444444444444    0.2222222222222222    0.8837666699999999 Zn
   0.4444444444444444    0.5555555555555556    0.8837666699999999 Zn
   0.4444444444444445    0.8888888888888890    0.8837666699999999 Zn
   0.7777777777777778    0.2222222222222222    0.8837666699999999 Zn
   0.7777777777777779    0.5555555555555556    0.8837666699999999 Zn
   0.7777777777777777    0.8888888888888890    0.8837666699999999 Zn
   0.1111111111111111    0.2222222222222222    0.4495666699999999 Zn
   0.1111111111111111    0.5555555555555556    0.4495666699999999 Zn
   0.1111111111111111    0.8888888888888890    0.4495666699999999 Zn
   0.4444444444444444    0.2222222222222222    0.4495666699999999 Zn
   0.4444444444444444    0.5555555555555556    0.4495666699999999 Zn
   0.4444444444444445    0.8888888888888890    0.4495666699999999 Zn
   0.7777777777777778    0.2222222222222222    0.4495666699999999 Zn
   0.7777777777777779    0.5555555555555556    0.4495666699999999 Zn
   0.7777777777777777    0.8888888888888890    0.4495666699999999 Zn
   0.0000000000000000    0.0000000000000000    0.0000000000000000 In
   0.0000000000000000    0.3333333333333334    0.0000000000000000 In
   0.0000000000000000    0.6666666666666667    0.0000000000000000 In
   0.3333333333333333    0.0000000000000000    0.0000000000000000 In
   0.3333333333333333    0.3333333333333334    0.0000000000000000 In
   0.3333333333333333    0.6666666666666667    0.0000000000000000 In
   0.6666666666666666    0.0000000000000000    0.0000000000000000 In
   0.6666666666666667    0.3333333333333334    0.0000000000000000 In
   0.6666666666666666    0.6666666666666667    0.0000000000000000 In
   0.2222222222222222    0.1111111111111111    0.3333333333333333 In
   0.2222222222222222    0.4444444444444445    0.3333333333333333 In
   0.2222222222222222    0.7777777777777778    0.3333333333333333 In
   0.5555555555555556    0.1111111111111111    0.3333333333333333 In
   0.5555555555555556    0.4444444444444445    0.3333333333333333 In
   0.5555555555555556    0.7777777777777778    0.3333333333333333 In
   0.8888888888888888    0.1111111111111111    0.3333333333333333 In
   0.8888888888888888    0.4444444444444445    0.3333333333333333 In
   0.8888888888888888    0.7777777777777778    0.3333333333333333 In
   0.1111111111111111    0.2222222222222222    0.6666666666666666 In
   0.1111111111111111    0.5555555555555556    0.6666666666666666 In
   0.1111111111111111    0.8888888888888890    0.6666666666666666 In
   0.4444444444444444    0.2222222222222222    0.6666666666666666 In
   0.4444444444444444    0.5555555555555556    0.6666666666666666 In
   0.4444444444444445    0.8888888888888890    0.6666666666666666 In
   0.7777777777777778    0.2222222222222222    0.6666666666666666 In
   0.7777777777777779    0.5555555555555556    0.6666666666666666 In
   0.7777777777777777    0.8888888888888890    0.6666666666666666 In
   0.0000000000000000    0.0000000000000000    0.2171000000000000 Ga
   0.0000000000000000    0.3333333333333334    0.2171000000000000 Ga
   0.0000000000000000    0.6666666666666667    0.2171000000000000 Ga
   0.3333333333333333    0.0000000000000000    0.2171000000000000 Ga
   0.3333333333333333    0.3333333333333334    0.2171000000000000 Ga
   0.3333333333333333    0.6666666666666667    0.2171000000000000 Ga
   0.6666666666666666    0.0000000000000000    0.2171000000000000 Ga
   0.6666666666666667    0.3333333333333334    0.2171000000000000 Ga
   0.6666666666666666    0.6666666666666667    0.2171000000000000 Ga
   0.0000000000000000    0.0000000000000000    0.7828999999999999 Ga
   0.0000000000000000    0.3333333333333334    0.7828999999999999 Ga
   0.0000000000000000    0.6666666666666667    0.7828999999999999 Ga
   0.3333333333333333    0.0000000000000000    0.7828999999999999 Ga
   0.3333333333333333    0.3333333333333334    0.7828999999999999 Ga
   0.3333333333333333    0.6666666666666667    0.7828999999999999 Ga
   0.6666666666666666    0.0000000000000000    0.7828999999999999 Ga
   0.6666666666666667    0.3333333333333334    0.7828999999999999 Ga
   0.6666666666666666    0.6666666666666667    0.7828999999999999 Ga
   0.2222222222222222    0.1111111111111111    0.5504333299999999 Ga
   0.2222222222222222    0.4444444444444445    0.5504333299999999 Ga
   0.2222222222222222    0.7777777777777778    0.5504333299999999 Ga
   0.5555555555555556    0.1111111111111111    0.5504333299999999 Ga
   0.5555555555555556    0.4444444444444445    0.5504333299999999 Ga
   0.5555555555555556    0.7777777777777778    0.5504333299999999 Ga
   0.8888888888888888    0.1111111111111111    0.5504333299999999 Ga
   0.8888888888888888    0.4444444444444445    0.5504333299999999 Ga
   0.8888888888888888    0.7777777777777778    0.5504333299999999 Ga
   0.0000000000000000    0.0000000000000000    0.1282000000000000 O
   0.0000000000000000    0.3333333333333334    0.1282000000000000 O
   0.0000000000000000    0.6666666666666667    0.1282000000000000 O
   0.3333333333333333    0.0000000000000000    0.1282000000000000 O
   0.3333333333333333    0.3333333333333334    0.1282000000000000 O
   0.3333333333333333    0.6666666666666667    0.1282000000000000 O
   0.6666666666666666    0.0000000000000000    0.1282000000000000 O
   0.6666666666666667    0.3333333333333334    0.1282000000000000 O
   0.6666666666666666    0.6666666666666667    0.1282000000000000 O
   0.0000000000000000    0.0000000000000000    0.8718000000000000 O
   0.0000000000000000    0.3333333333333334    0.8718000000000000 O
   0.0000000000000000    0.6666666666666667    0.8718000000000000 O
   0.3333333333333333    0.0000000000000000    0.8718000000000000 O
   0.3333333333333333    0.3333333333333334    0.8718000000000000 O
   0.3333333333333333    0.6666666666666667    0.8718000000000000 O
   0.6666666666666666    0.0000000000000000    0.8718000000000000 O
   0.6666666666666667    0.3333333333333334    0.8718000000000000 O
   0.6666666666666666    0.6666666666666667    0.8718000000000000 O
   0.2222222222222222    0.1111111111111111    0.4615333300000000 O
   0.2222222222222222    0.4444444444444445    0.4615333300000000 O
   0.2222222222222222    0.7777777777777778    0.4615333300000000 O
   0.5555555555555556    0.1111111111111111    0.4615333300000000 O
   0.5555555555555556    0.4444444444444445    0.4615333300000000 O
   0.5555555555555556    0.7777777777777778    0.4615333300000000 O
   0.8888888888888888    0.1111111111111111    0.4615333300000000 O
   0.8888888888888888    0.4444444444444445    0.4615333300000000 O
   0.8888888888888888    0.7777777777777778    0.4615333300000000 O
   0.2222222222222222    0.1111111111111111    0.2051333300000000 O
   0.2222222222222222    0.4444444444444445    0.2051333299999999 O
   0.2222222222222222    0.7777777777777778    0.2051333299999999 O
   0.5555555555555556    0.1111111111111111    0.2051333299999999 O
   0.5555555555555556    0.4444444444444445    0.2051333299999999 O
   0.5555555555555556    0.7777777777777778    0.2051333300000000 O
   0.8888888888888888    0.1111111111111111    0.2051333299999999 O
   0.8888888888888888    0.4444444444444445    0.2051333300000000 O
   0.8888888888888888    0.7777777777777778    0.2051333300000000 O
   0.1111111111111111    0.2222222222222222    0.7948666700000000 O
   0.1111111111111111    0.5555555555555556    0.7948666700000000 O
   0.1111111111111111    0.8888888888888890    0.7948666700000000 O
   0.4444444444444444    0.2222222222222222    0.7948666700000000 O
   0.4444444444444444    0.5555555555555556    0.7948666700000000 O
   0.4444444444444445    0.8888888888888890    0.7948666700000000 O
   0.7777777777777778    0.2222222222222222    0.7948666700000000 O
   0.7777777777777779    0.5555555555555556    0.7948666700000000 O
   0.7777777777777777    0.8888888888888890    0.7948666700000000 O
   0.1111111111111111    0.2222222222222222    0.5384666700000000 O
   0.1111111111111111    0.5555555555555556    0.5384666700000000 O
   0.1111111111111111    0.8888888888888890    0.5384666700000000 O
   0.4444444444444444    0.2222222222222222    0.5384666700000000 O
   0.4444444444444444    0.5555555555555556    0.5384666700000000 O
   0.4444444444444445    0.8888888888888890    0.5384666700000000 O
   0.7777777777777778    0.2222222222222222    0.5384666700000000 O
   0.7777777777777779    0.5555555555555556    0.5384666700000000 O
   0.7777777777777777    0.8888888888888890    0.5384666700000000 O
   0.0000000000000000    0.0000000000000000    0.2927999999999999 O
   0.0000000000000000    0.3333333333333334    0.2927999999999999 O
   0.0000000000000000    0.6666666666666667    0.2927999999999999 O
   0.3333333333333333    0.0000000000000000    0.2927999999999999 O
   0.3333333333333333    0.3333333333333334    0.2927999999999999 O
   0.3333333333333333    0.6666666666666667    0.2928000000000000 O
   0.6666666666666666    0.0000000000000000    0.2927999999999999 O
   0.6666666666666667    0.3333333333333334    0.2928000000000000 O
   0.6666666666666666    0.6666666666666667    0.2927999999999999 O
   0.0000000000000000    0.0000000000000000    0.7072000000000001 O
   0.0000000000000000    0.3333333333333334    0.7072000000000001 O
   0.0000000000000000    0.6666666666666667    0.7072000000000001 O
   0.3333333333333333    0.0000000000000000    0.7072000000000001 O
   0.3333333333333333    0.3333333333333334    0.7072000000000001 O
   0.3333333333333333    0.6666666666666667    0.7072000000000001 O
   0.6666666666666666    0.0000000000000000    0.7072000000000001 O
   0.6666666666666667    0.3333333333333334    0.7072000000000001 O
   0.6666666666666666    0.6666666666666667    0.7072000000000001 O
   0.2222222222222222    0.1111111111111111    0.6261333300000000 O
   0.2222222222222222    0.4444444444444445    0.6261333300000000 O
   0.2222222222222222    0.7777777777777778    0.6261333300000000 O
   0.5555555555555556    0.1111111111111111    0.6261333300000000 O
   0.5555555555555556    0.4444444444444445    0.6261333300000000 O
   0.5555555555555556    0.7777777777777778    0.6261333300000000 O
   0.8888888888888888    0.1111111111111111    0.6261333300000000 O
   0.8888888888888888    0.4444444444444445    0.6261333300000000 O
   0.8888888888888888    0.7777777777777778    0.6261333300000000 O
   0.2222222222222222    0.1111111111111111    0.0405333300000000 O
   0.2222222222222222    0.4444444444444445    0.0405333300000000 O
   0.2222222222222222    0.7777777777777778    0.0405333300000000 O
   0.5555555555555556    0.1111111111111111    0.0405333300000000 O
   0.5555555555555556    0.4444444444444445    0.0405333300000000 O
   0.5555555555555556    0.7777777777777778    0.0405333300000000 O
   0.8888888888888888    0.1111111111111111    0.0405333300000000 O
   0.8888888888888888    0.4444444444444445    0.0405333300000000 O
   0.8888888888888888    0.7777777777777778    0.0405333300000000 O
   0.1111111111111111    0.2222222222222222    0.9594666700000000 O
   0.1111111111111111    0.5555555555555556    0.9594666700000000 O
   0.1111111111111111    0.8888888888888890    0.9594666700000000 O
   0.4444444444444444    0.2222222222222222    0.9594666700000000 O
   0.4444444444444444    0.5555555555555556    0.9594666700000000 O
   0.4444444444444445    0.8888888888888890    0.9594666700000000 O
   0.7777777777777778    0.2222222222222222    0.9594666700000000 O
   0.7777777777777779    0.5555555555555556    0.9594666700000000 O
   0.7777777777777777    0.8888888888888890    0.9594666700000000 O
   0.1111111111111111    0.2222222222222222    0.3738666700000000 O
   0.1111111111111111    0.5555555555555556    0.3738666700000000 O
   0.1111111111111111    0.8888888888888890    0.3738666700000000 O
   0.4444444444444444    0.2222222222222222    0.3738666700000000 O
   0.4444444444444444    0.5555555555555556    0.3738666700000000 O
   0.4444444444444445    0.8888888888888890    0.3738666699999999 O
   0.7777777777777778    0.2222222222222222    0.3738666700000000 O
   0.7777777777777779    0.5555555555555556    0.3738666699999999 O
   0.7777777777777777    0.8888888888888890    0.3738666699999999 O
