Zn3 In3 Ga3 O12
1.0
   3.2989999999999999    0.0000000000000000    0.0000000000000002
  -1.6494999999999995    2.8570178070848633    0.0000000000000002
   0.0000000000000000    0.0000000000000000   26.1009999999999991
Ga Zn In O
3 3 3 12
direct
   0.0000000000000000    0.0000000000000000    0.2171000000000000 Ga
   0.0000000000000000    0.0000000000000000    0.7829000000000000 Ga
   0.6666666666666666    0.3333333333333333    0.5504333333333333 Ga
   0.6666666666666666    0.3333333333333333    0.1162333333333333 Zn
   0.3333333333333333    0.6666666666666666    0.8837666666666666 Zn
   0.3333333333333333    0.6666666666666666    0.4495666666666667 Zn
   0.0000000000000000    0.0000000000000000    0.0000000000000000 In
   0.6666666666666666    0.3333333333333333    0.3333333333333333 In
   0.3333333333333333    0.6666666666666666    0.6666666666666666 In
   0.0000000000000000    0.0000000000000000    0.1282000000000000 O
   0.0000000000000000    0.0000000000000000    0.8718000000000000 O
   0.6666666666666666    0.3333333333333333    0.4615333333333334 O
   0.6666666666666666    0.3333333333333333    0.2051333333333333 O
   0.3333333333333333    0.6666666666666666    0.7948666666666666 O
   0.3333333333333333    0.6666666666666666    0.5384666666666666 O
   0.0000000000000000    0.0000000000000000    0.2928000000000000 O
   0.0000000000000000    0.0000000000000000    0.7072000000000001 O
   0.6666666666666666    0.3333333333333333    0.6261333333333333 O
   0.6666666666666666    0.3333333333333333    0.0405333333333333 O
   0.3333333333333333    0.6666666666666666    0.9594666666666667 O
   0.3333333333333333    0.6666666666666666    0.3738666666666666 O
