188
i =       15, E =     -6889.1477592085
Zn      -0.0006885193       0.0003977134       5.6884595706
Zn      -1.6857838080       2.9190685188       5.6884597380
Zn      -3.3738543864       5.8384078208       5.6936799373
Zn       3.3715679181       0.0026398494       5.6936803161
Zn       1.6828720506       2.9181827460       5.6794434979
Zn       0.0022867788       5.8384070516       5.6936803759
Zn       6.7438249931       0.0003975280       5.6884601326
Zn       5.0602648057       2.9181819753       5.6794429046
Zn       3.3715678545       5.8430897240       5.6794436678
Zn       1.6790750908       0.9736809252      14.4254336105
Zn      -0.0030125567       3.8871473477      14.4254317592
Zn      -1.6857835798       6.8130149289      14.4431251698
Zn       5.0640591995       0.9736817004      14.4254310441
Zn       3.3715694172       3.8931505845      14.5077257429
Zn       1.6894776126       6.8186259769      14.4254314809
Zn       8.4289198956       0.9732880819      14.4215663561
Zn       6.7461486365       3.8871462065      14.4254307602
Zn       5.0536572760       6.8186286408      14.4254336724
Zn      -0.0009884693       1.9460047336      23.1489277427
Zn      -1.6857833039       4.8658277169      23.1488121038
Zn      -3.3720967713       7.7866081881      23.1488119457
Zn       3.3715686903       1.9461549733      23.1498011331
Zn       1.6854201697       4.8666494290      23.1498013045
Zn       0.0005300960       7.7866081623      23.1488120579
Zn       6.7441260052       1.9460044961      23.1489278632
Zn       5.0577169026       4.8666492153      23.1498010328
Zn       3.3715686108       7.7874445328      23.1489278232
In      -0.0000139688       0.0000081129       0.0518829360
In      -1.6857838601       2.9198472018       0.0518830308
In      -3.3712750448       5.8398962216       0.0518043369
In       3.3715682625      -0.0003383396       0.0518044003
In       1.6857169665       2.9198246676       0.0513349812
In      -0.0002928839       5.8398963214       0.0518046048
In       6.7431505173       0.0000080771       0.0518829319
In       5.0574195163       2.9198246615       0.0513349273
In       3.3715681858       5.8398046473       0.0513350281
In       1.6768122928       0.9737058023       8.7726241038
In      -0.0041231872       3.8851740668       8.7726247670
In      -1.6857835625       6.8130143767       8.7656951060
In       5.0663209681       0.9737049368       8.7726240086
In       3.3715685067       3.8931511660       8.6897707802
In       1.6906312046       6.8205746014       8.7726246642
In       8.4289193052       0.9732884499       8.7643811709
In       6.7472590452       3.8851747572       8.7726230376
In       5.0525043080       6.8205756083       8.7726245012
In       0.0006624631       1.9469580830      17.5048140707
In      -1.6857843009       4.8663971948      17.5047830854
In      -3.3716034573       7.7863233637      17.5047872803
In       3.3715665525       1.9413905041      17.5360919532
In       1.6812928238       4.8690323784      17.5360917879
In       0.0000364336       7.7863242579      17.5047830103
In       6.7424714230       1.9469595525      17.5048122995
In       5.0618418853       4.8690333380      17.5360915868
In       3.3715681988       7.7855380552      17.5048143655
Ga      -0.0000051011       0.0000028916      20.5788530423
Ga      -1.6857842032       2.9198582297      20.5788521726
Ga      -3.3709317660       5.8400943261      20.5821447327
Ga       3.3715682247      -0.0007346898      20.5821447645
Ga       1.6848099918       2.9193020799      20.5844215677
Ga      -0.0006372760       5.8400950341      20.5821439837
Ga       6.7431406847       0.0000027898      20.5788524067
Ga       5.0583263055       2.9193010950      20.5844211989
Ga       3.3715673199       5.8408514601      20.5844216409
Ga       1.6859130996       0.9725379427       3.1233376912
Ga      -0.0005858803       3.8936384876       3.1233376457
Ga      -1.6857842812       6.8130151547       3.1249758211
Ga       5.0572230769       0.9725379783       3.1233377433
Ga       3.3715677353       3.8931516433       3.1229591326
Ga       1.6850692940       6.8132788677       3.1233377102
Ga       8.4289199833       0.9732877886       3.1235826258
Ga       6.7437210942       3.8936379912       3.1233377306
Ga       5.0580660470       6.8132781792       3.1233376493
Ga      -0.0040075924       1.9442676191      11.8464489382
Ga      -1.6857863127       4.8739671688      11.8512524401
Ga      -3.3650397832       7.7825337898      11.8512521034
Ga       3.3715549579       1.8295839002      11.8386341471
Ga       1.5844899395       4.9249214854      11.8386346053
Ga      -0.0065204988       7.7825409618      11.8512525316
Ga       6.7471416873       1.9442631531      11.8464486455
Ga       5.1586633062       4.9249466714      11.8386341772
Ga       3.3715631416       7.7909276303      11.8464489541
O        0.0001839496      -0.0001061677       3.1553021540
O       -1.6857839307       2.9200749051       3.1553021388
O       -3.3699705043       5.8406488429       3.1565808913
O        3.3715688465      -0.0018444054       3.1565809188
O        1.6861628976       2.9200821805       3.1574402779
O       -0.0015971081       5.8406492758       3.1565806240
O        6.7429531808      -0.0001058177       3.1553022420
O        5.0569738289       2.9200820663       3.1574404073
O        3.3715682215       5.8392897931       3.1574401605
O        1.6739677095       0.9444498116      11.8752960353
O       -0.0308672681       3.8973430772      11.8752970587
O       -1.6857801955       6.8130127221      11.8754172403
O        5.0691587734       0.9444610089      11.8752971261
O        1.6667205059       6.8376507657      11.8752970230
O        8.4289201779       0.9732879204      11.8749647301
O        6.7740039513       3.8973402157      11.8752972930
O        5.0764183752       6.8376672488      11.8752959611
O       -0.0016456161       1.9456257965      20.5942776254
O       -1.6857836698       4.8655711282      20.5956092804
O       -3.3723189897       7.7867364842      20.5956092077
O        3.3715683088       1.9465295150      20.5933950708
O        1.6857438710       4.8664625383      20.5933948632
O        0.0007521514       7.7867367140      20.5956094319
O        6.7447831147       1.9456249184      20.5942774966
O        5.0573922600       4.8664623067      20.5933951497
O        3.3715680112       7.7882030242      20.5942777948
O       -0.0019032765       0.0010988114       7.6997729285
O       -1.6857836950       2.9176692086       7.6997723638
O       -3.3956544523       5.8258276128       7.7194404853
O        3.3715620257       0.0278087846       7.7194408204
O        1.6811572979       2.9171934633       7.6995861876
O        0.0240872334       5.8258203719       7.7194415312
O        6.7450366473       0.0010969038       7.6997724462
O        5.0619808035       2.9171909562       7.6995867245
O        3.3715671041       5.8450690644       7.6995863038
O        1.6969556491       0.9815629990      16.4107153120
O        0.0127604893       3.8986878280      16.4107138425
O       -1.6857828927       6.8130145495      16.4289245089
O        5.0461748611       0.9815698808      16.4107132246
O        3.3715686335       3.8931510422      16.4501776635
O        1.6873697124       6.7991959945      16.4107137779
O        8.4289192500       0.9732883168      16.4129845652
O        6.7303750428       3.8986902855      16.4107130954
O        5.0557713834       6.7992028112      16.4107153065
O        0.0000663485       1.9466136926      25.1479690118
O       -1.6857837228       4.8662138984      25.1479694252
O       -3.3717629788       7.7864154313      25.1479692859
O        3.3715683200       1.9465759458      25.1480248566
O        1.6857844945       4.8664389645      25.1480250441
O        0.0001953228       7.7864153422      25.1479693991
O        6.7430704150       1.9466137072      25.1479690927
O        5.0573520122       4.8664389267      25.1480249181
O        3.3715683805       7.7862264306      25.1479690033
O        0.0018221020      -0.0010518870      18.5851402541
O       -1.6857850668       2.9219680873      18.5851377009
O       -3.3690425044       5.8411842784      18.5944122764
O        3.3715691506      -0.0029157690      18.5944123235
O        1.6817133904       2.9175146606      18.5968308459
O       -0.0025264815       5.8411860108      18.5944116208
O        6.7413130716      -0.0010513717      18.5851377924
O        5.0614226704       2.9175135592      18.5968310226
O        3.3715670386       5.8444269329      18.5968308249
O        1.6861277528       0.9736513418       1.1460773155
O        0.0004866472       3.8932671390       1.1460773625
O       -1.6857841894       6.8130151067       1.1457291489
O        5.0570085970       0.9736515207       1.1460772048
O        3.3715681755       3.8931513613       1.1459008257
O        1.6859271624       6.8125357979       1.1460772253
O        8.4289202980       0.9732878947       1.1456770054
O        6.7426494621       3.8932673469       1.1460773381
O        5.0572091488       6.8125357192       1.1460772816
O        0.0041707751       1.9489852509       9.8752565057
O       -1.6857864824       4.8697167530       9.8656189117
O       -3.3687261110       7.7846620070       9.8656178602
O        3.3715672483       2.0456800535       9.9398686327
O        1.7716088281       4.8168881245       9.9398675642
O       -0.0028394859       7.7846654553       9.8656192942
O        6.7389658414       1.9489835226       9.8752561332
O        4.9715249456       4.8168873643       9.9398686351
O        3.3715666595       7.7814861319       9.8752566904
O        0.0000095090      -0.0000054378      22.5797035908
O       -1.6857836144       2.9198740037      22.5797035886
O       -3.3717698089       5.8396102110      22.5806003454
O        3.3715684676       0.0002332475      22.5806003925
O        1.6857198939       2.9198262230      22.5809038318
O        0.0002023607       5.8396102789      22.5805999187
O        6.7431274338      -0.0000055011      22.5797038941
O        5.0574173599       2.9198258433      22.5809034357
O        3.3715683199       5.8398014692      22.5809039552
O        1.6866416005       0.9720206518       5.1372213122
O       -0.0006690361       3.8945277384       5.1372210541
O       -1.6857835087       6.8130149332       5.1486911022
O        5.0564947232       0.9720204751       5.1372215872
O        3.3715684859       3.8931513426       5.1416970041
O        1.6842576633       6.8129063600       5.1372210481
O        8.4289200881       0.9732878270       5.1353330960
O        6.7438050404       3.8945278585       5.1372217880
O        5.0588780907       6.8129061066       5.1372212687
O        0.0066149182       1.9503958971      13.8360567135
O       -1.6857846479       4.8696221691      13.8639503744
O       -3.3688089391       7.7847098819      13.8639515836
O        3.3715645714       2.0349352645      13.7575957332
O        1.7623098139       4.8222567300      13.7575968206
O       -0.0027566868       7.7847121702      13.8639503750
O        6.7365211147       1.9503948832      13.8360563477
O        4.9808282657       4.8222628656      13.7575958635
O        3.3715671938       7.7786643035      13.8360567665
