     188
 i =        1, E =     -6889.2234716869
 Zn        -0.0001627197        0.0000940060        5.6949498334
 Zn        -1.6857751215        2.9196755366        5.6949604934
 Zn        -3.3717203890        5.8396345464        5.6976487604
 Zn         3.3715721083        0.0001781607        5.6976488816
 Zn         1.6857274362        2.9198390386        5.6985379515
 Zn         0.0001523553        5.8396382857        5.6976418230
 Zn         6.7433034307        0.0000867105        5.6949606316
 Zn         5.0574039705        2.9198337319        5.6985471844
 Zn         3.3715604716        5.8397886383        5.6985380800
 Zn         1.6858177604        0.9747397940       14.4196974231
 Zn         0.0012097966        3.8925157247       14.4197454032
 Zn        -1.6858077366        6.8130286786       14.4230976476
 Zn         5.0573072528        0.9746857287       14.4197060126
 Zn         3.3714668916        3.8932092337       14.4388181985
 Zn         1.6869387172        6.8122846665       14.4197455730
 Zn         8.4289066409        0.9732956478       14.4219040237
 Zn         6.7419027604        3.8924910152       14.4197063014
 Zn         5.0561107540        6.8122605021       14.4196975297
 Zn        -0.0000045819        1.9465712274       23.1466147476
 Zn        -1.6857801937        4.8663794788       23.1465965509
 Zn        -3.3716121714        7.7863286154       23.1466010237
 Zn         3.3715729277        1.9466214963       23.1466279656
 Zn         1.6858282884        4.8664131064       23.1466266509
 Zn         0.0000529823        7.7863290206       23.1465970699
 Zn         6.7431451431        1.9465706687       23.1466130982
 Zn         5.0573145708        4.8664119331       23.1466283967
 Zn         3.3715690431        7.7863098831       23.1466153083
 In        -0.0000894325        0.0000518957        0.0526555927
 In        -1.6857821210        2.9197620543        0.0526576748
 In        -3.3715858039        5.8397154842        0.0525994985
 In         3.3715686462        0.0000220731        0.0525985933
 In         1.6857119667        2.9198242813        0.0525123224
 In         0.0000201169        5.8397147200        0.0526036042
 In         6.7432254727        0.0000497930        0.0526569851
 In         5.0574232247        2.9198216710        0.0525096527
 In         3.3715657434        5.8398089867        0.0525128955
 In         1.6821188285        0.9716027207        8.7734195541
 In        -0.0032596714        3.8909224497        8.7733846398
 In        -1.6857225691        6.8129798726        8.7742637889
 In         5.0609867570        0.9715217963        8.7734544827
 In         3.3714450637        3.8932222366        8.7477884771
 In         1.6860845541        6.8169525439        8.7733843919
 In         8.4289289913        0.9732828101        8.7772455430
 In         6.7464826320        3.8908859603        8.7734541298
 In         5.0569786651        6.8170317690        8.7734187161
 In        -0.0005496579        1.9462902497       17.5040063361
 In        -1.6857712704        4.8667388236       17.5036876353
 In        -3.3712711266        7.7861318183       17.5037402750
 In         3.3715963575        1.9461464250       17.5055317485
 In         1.6853932985        4.8666649131       17.5054667238
 In        -0.0002535674        7.7861429678       17.5036867447
 In         6.7436738625        1.9462644356       17.5040054220
 In         5.0577375111        4.8666290258       17.5055323241
 In         3.3715404415        7.7869219439       17.5040059066
 Ga        -0.0000107137        0.0000063560       20.5760502250
 Ga        -1.6857938619        2.9198712131       20.5760564712
 Ga        -3.3715668293        5.8397407298       20.5761418991
 Ga         3.3715578523       -0.0000069802       20.5761427078
 Ga         1.6858246590        2.9199015309       20.5759265190
 Ga        -0.0000241481        5.8397410647       20.5761451630
 Ga         6.7431242750        0.0000061301       20.5760570474
 Ga         5.0572873619        2.9199007943       20.5759319228
 Ga         3.3715558393        5.8396729359       20.5759260601
 Ga         1.6857420500        0.9732933747        3.1260830995
 Ga        -0.0000216388        3.8931216813        3.1260837432
 Ga        -1.6857887127        6.8130184911        3.1259748428
 Ga         5.0573889271        0.9732902936        3.1260769710
 Ga         3.3715613934        3.8931553992        3.1261436279
 Ga         1.6857982197        6.8130493207        3.1260834427
 Ga         8.4289174215        0.9732902673        3.1262039081
 Ga         6.7431519266        3.8931186860        3.1260769191
 Ga         5.0573258470        6.8130487181        3.1260822762
 Ga         0.0053811006        1.9496157489       11.8503934062
 Ga        -1.6857678534        4.8676330998       11.8509244230
 Ga        -3.3704572665        7.7856628416       11.8508976080
 Ga         3.3716665275        1.9746566666       11.8529243821
 Ga         1.7102785552        4.8522971424       11.8529404920
 Ga        -0.0010257718        7.7856928006       11.8509249019
 Ga         6.7378354774        1.9496363560       11.8503958994
 Ga         5.0330811870        4.8523125585       11.8529243417
 Ga         3.3716260687        7.7801233318       11.8503936433
  O        -0.0000281680        0.0000165407        3.1506857701
  O        -1.6857901890        2.9198338963        3.1506795540
  O        -3.3716208764        5.8397024977        3.1505181851
  O         3.3715632661        0.0000590788        3.1505186033
  O         1.6857985453        2.9198758534        3.1504867312
  O         0.0000337437        5.8397071210        3.1505050495
  O         6.7431599842        0.0000212657        3.1506798926
  O         5.0573270457        2.9198782994        3.1505030624
  O         3.3715645898        5.8397088843        3.1504868188
  O         1.6942880019        0.9721198244       11.8765863995
  O         0.0033220501        3.9009313238       11.8765377506
  O        -1.6857700347        6.8130070331       11.8756006231
  O         5.0490130566        0.9722206011       11.8765590580
  O         1.6807068445        6.8062478207       11.8765373481
  O         8.4289530204        0.9732698634       11.8753756557
  O         6.7398915799        3.9009073253       11.8765586460
  O         5.0626172548        6.8062348922       11.8765870590
  O         0.0000597328        1.9466195443       20.5984065045
  O        -1.6857985283        4.8664518420       20.5985372018
  O        -3.3715773064        7.7863091268       20.5985275031
  O         3.3715534721        1.9465779931       20.5983751629
  O         1.6857685885        4.8664479126       20.5983692958
  O        -0.0000183498        7.7863087690       20.5985376734
  O         6.7430553945        1.9466237324       20.5984193703
  O         5.0573440079        4.8664505549       20.5983759899
  O         3.3715602695        7.7862298984       20.5984078112
  O        -0.0035281743        0.0020362358        7.6970003236
  O        -1.6857691364        2.9157529769        7.6970207039
  O        -3.3740609879        5.8383485649        7.7013913292
  O         3.3715147126        0.0028478210        7.7013910577
  O         1.6879930623        2.9210706420        7.7020819194
  O         0.0023335923        5.8383793441        7.7013350655
  O         6.7467041708        0.0020416147        7.6970205115
  O         5.0551560466        2.9211308545        7.7021484102
  O         3.3716265577        5.8372102819        7.7020822849
  O         1.6873787287        0.9745251159       16.4215841050
  O         0.0018565553        3.8938389847       16.4216659261
  O        -1.6858370250        6.8130448294       16.4248243157
  O         5.0557563248        0.9745820398       16.4216294509
  O         3.3715946314        3.8931355070       16.4289752859
  O         1.6861164761        6.8110612965       16.4216657792
  O         8.4289385347        0.9732782810       16.4239259799
  O         6.7412176997        3.8938859712       16.4216303424
  O         5.0570784586        6.8110145695       16.4215844830
  O        -0.0000001201        1.9465710610       25.1487486006
  O        -1.6857791676        4.8664711859       25.1487714588
  O        -3.3715340688        7.7862825355       25.1487750200
  O         3.3715713392        1.9465494127       25.1487890423
  O         1.6857662371        4.8664497020       25.1487872865
  O        -0.0000257823        7.7862815213       25.1487716638
  O         6.7431456546        1.9465711185       25.1487481804
  O         5.0573777864        4.8664487540       25.1487899945
  O         3.3715725536        7.7863037358       25.1487494351
  O         0.0007361582       -0.0004245538       18.5934472376
  O        -1.6857959361        2.9206774823       18.5934797330
  O        -3.3723484285        5.8392645497       18.5935956661
  O         3.3715774454        0.0009076634       18.5935969535
  O         1.6860044296        2.9199552433       18.5930921801
  O         0.0007844300        5.8392748021       18.5936058176
  O         6.7424247831       -0.0003971516       18.5934798418
  O         5.0571551585        2.9199776171       18.5931126419
  O         3.3715995707        5.8394904512       18.5930916985
  O         1.6857862007        0.9732619718        1.1439483784
  O        -0.0000142780        3.8931580418        1.1439513381
  O        -1.6857804025        6.8130125700        1.1438163874
  O         5.0573578555        0.9732634273        1.1439433667
  O         3.3715737194        3.8931495138        1.1438052899
  O         1.6857705509        6.8130246473        1.1439499377
  O         8.4289262654        0.9732848470        1.1442782080
  O         6.7431606025        3.8931583406        1.1439431801
  O         5.0573759190        6.8130253773        1.1439466346
  O         0.0006366145        1.9469189731        9.8685205472
  O        -1.6857973332        4.8672047921        9.8681659042
  O        -3.3708956195        7.7859148600        9.8682428076
  O         3.3715240351        1.9792363339        9.8757674858
  O         1.7139136448        4.8501994034        9.8756486610
  O        -0.0006697212        7.7859316580        9.8681661555
  O         6.7424936000        1.9469468426        9.8685151854
  O         5.0290457502        4.8501477979        9.8757670242
  O         3.3715891414        7.7855802163        9.8685202418
  O        -0.0000407375        0.0000231473       22.5829697648
  O        -1.6857792437        2.9198060116       22.5829702497
  O        -3.3715776943        5.8397160357       22.5830802483
  O         3.3715727904        0.0000136142       22.5830804839
  O         1.6857597001        2.9198434332       22.5829017126
  O         0.0000201146        5.8397153646       22.5830840623
  O         6.7431872467        0.0000249654       22.5829705971
  O         5.0573850962        2.9198446008       22.5828998942
  O         3.3715727591        5.8397590447       22.5829012307
  O         1.6858760232        0.9737203650        5.1339213422
  O         0.0004210776        3.8929980646        5.1338981702
  O        -1.6858134505        6.8130318492        5.1338730831
  O         5.0572585868        0.9737316303        5.1339188907
  O         3.3715755631        3.8931469301        5.1344940216
  O         1.6861256877        6.8127271371        5.1338983437
  O         8.4289231880        0.9732860785        5.1335084741
  O         6.7427051409        3.8930099526        5.1339188733
  O         5.0570230462        6.8127191016        5.1339211849
  O        -0.0000038851        1.9465941268       13.8575843327
  O        -1.6858090011        4.8662121945       13.8596496510
  O        -3.3718836583        7.7864847876       13.8595413263
  O         3.3715539253        1.9656010966       13.8550748566
  O         1.7021051736        4.8570159580       13.8552126349
  O         0.0001837697        7.7864378790       13.8596499458
  O         6.7431214549        1.9465840991       13.8575765379
  O         5.0408679848        4.8569393856       13.8550753153
  O         3.3715488364        7.7862974952       13.8575844957
     188
 i =        2, E =     -6889.2249536423
 Zn        -0.0004051987        0.0002338311        5.6938131453
 Zn        -1.6857774446        2.9193886724        5.6938319756
 Zn        -3.3720481875        5.8394440879        5.6965934381
 Zn         3.3715731040        0.0005572866        5.6965940931
 Zn         1.6850964302        2.9194670799        5.6921608866
 Zn         0.0004575659        5.8394614227        5.6965568724
 Zn         6.7435508525        0.0002321347        5.6938320626
 Zn         5.0580402989        2.9194662169        5.6922054565
 Zn         3.3715663701        5.8405213620        5.6921605086
 Zn         1.6861359417        0.9758444812       14.4175837160
 Zn         0.0022604097        3.8922653483       14.4176449623
 Zn        -1.6858335183        6.8130429695       14.4249172456
 Zn         5.0569861791        0.9757782170       14.4175972617
 Zn         3.3713771090        3.8932612392       14.4638351332
 Zn         1.6876806519        6.8114992646       14.4176451018
 Zn         8.4289088372        0.9732948162       14.4199429576
 Zn         6.7407965227        3.8922230471       14.4175980346
 Zn         5.0553130920        6.8114329308       14.4175829169
 Zn         0.0001017245        1.9466256037       23.1465008684
 Zn        -1.6857802142        4.8664459246       23.1465491232
 Zn        -3.3715565791        7.7862961682       23.1465539495
 Zn         3.3715702175        1.9466700879       23.1464622278
 Zn         1.6858753113        4.8663859589       23.1464619486
 Zn        -0.0000049670        7.7862950179       23.1465502516
 Zn         6.7430446687        1.9466286807       23.1464983814
 Zn         5.0572714167        4.8663900479       23.1464626284
 Zn         3.3715746893        7.7861906830       23.1465012756
 In         0.0000758183       -0.0000443130        0.0521638908
 In        -1.6857815140        2.9199492633        0.0521653421
 In        -3.3716014757        5.8397062813        0.0520233029
 In         3.3715682934        0.0000395244        0.0520217742
 In         1.6858696885        2.9199121996        0.0521393006
 In         0.0000348286        5.8397063620        0.0520295083
 In         6.7430640169       -0.0000441634        0.0521632822
 In         5.0572690793        2.9199107759        0.0521319302
 In         3.3715687634        5.8396285993        0.0521406453
 In         1.6833085022        0.9744823322        8.7799711790
 In        -0.0001686956        3.8905108528        8.7798733640
 In        -1.6857452625        6.8129925232        8.7776843931
 In         5.0597778936        0.9744305257        8.7799910072
 In         3.3714061023        3.8932448767        8.7220698114
 In         1.6879869166        6.8144819718        8.7798733039
 In         8.4289348002        0.9732795755        8.7832948329
 In         6.7433587901        3.8904791414        8.7799911943
 In         5.0550798128        6.8145617468        8.7799703655
 In         0.0000971827        1.9466378804       17.5015196189
 In        -1.6857850386        4.8666762203       17.5006901818
 In        -3.3713220862        7.7861603974       17.5007493898
 In         3.3716003575        1.9445445179       17.5070230770
 In         1.6840229089        4.8674570156       17.5069272292
 In        -0.0002064507        7.7861857316       17.5006897762
 In         6.7430411657        1.9466296377       17.5015196772
 In         5.0591273700        4.8674271420       17.5070230868
 In         3.3715631011        7.7861873707       17.5015189272
 Ga         0.0001995930       -0.0001146453       20.5766005642
 Ga        -1.6857987483        2.9201125760       20.5765944008
 Ga        -3.3716805719        5.8396710706       20.5770394086
 Ga         3.3715603884        0.0001264728       20.5770404644
 Ga         1.6856770460        2.9198143354       20.5770973802
 Ga         0.0000908745        5.8396754052       20.5770236187
 Ga         6.7429129105       -0.0001109809       20.5765954461
 Ga         5.0574358491        2.9198156704       20.5771118599
 Ga         3.3715565818        5.8398445682       20.5770971867
 Ga         1.6859865428        0.9735029249        3.1265826891
 Ga         0.0002801144        3.8932239195        3.1265826488
 Ga        -1.6857923847        6.8130200122        3.1269630040
 Ga         5.0571475200        0.9735024658        3.1265818393
 Ga         3.3715651665        3.8931537081        3.1271450489
 Ga         1.6858608658        6.8127372261        3.1265826500
 Ga         8.4289161352        0.9732911530        3.1258654551
 Ga         6.7428477520        3.8932217718        3.1265815972
 Ga         5.0572661938        6.8127326323        3.1265818862
 Ga         0.0056353913        1.9497522808       11.8506687440
 Ga        -1.6857157965        4.8675706820       11.8513747977
 Ga        -3.3705147637        7.7856949301       11.8513165773
 Ga         3.3717711595        1.9982651039       11.8501152112
 Ga         1.7311249562        4.8402615363       11.8501898251
 Ga        -0.0009455347        7.7856784052       11.8513757036
 Ga         6.7376265902        1.9497568135       11.8506742646
 Ga         5.0126849829        4.8404163277       11.8501149934
 Ga         3.3716347251        7.7798344985       11.8506690372
  O         0.0002249151       -0.0001291402        3.1501597109
  O        -1.6857976309        2.9201254077        3.1501551375
  O        -3.3715160727        5.8397615245        3.1502773589
  O         3.3715649560       -0.0000618462        3.1502772877
  O         1.6859848436        2.9199820898        3.1502018966
  O        -0.0000836984        5.8397748629        3.1502774201
  O         6.7429037996       -0.0001175243        3.1501544603
  O         5.0571418216        2.9199854835        3.1502154088
  O         3.3715657395        5.8394947200        3.1502023008
  O         1.6979820846        0.9714783573       11.8762129405
  O         0.0047392525        3.9043433708       11.8761364140
  O        -1.6857845891        6.8130152767       11.8732859342
  O         5.0454758279        0.9716313651       11.8761627377
  O         1.6784604724        6.8033147125       11.8761365885
  O         8.4289817214        0.9732540867       11.8730248954
  O         6.7386328691        3.9042655370       11.8761623532
  O         5.0650195109        6.8033562691       11.8762141601
  O        -0.0001554431        1.9464972177       20.5987201966
  O        -1.6858008076        4.8666516518       20.5991596193
  O        -3.3714084577        7.7862110180       20.5991412005
  O         3.3715505999        1.9467203857       20.5990838718
  O         1.6858895016        4.8663779489       20.5990688546
  O        -0.0001931099        7.7862114599       20.5991593962
  O         6.7432622261        1.9465044118       20.5987481590
  O         5.0572189828        4.8663831889       20.5990847574
  O         3.3715595682        7.7864776037       20.5987202208
  O        -0.0004618839        0.0002651209        7.6979159230
  O        -1.6857688652        2.9193021047        7.6979483882
  O        -3.3779974338        5.8361021636        7.7029427219
  O         3.3714918358        0.0073794909        7.7029429637
  O         1.6804523394        2.9167024277        7.6948424406
  O         0.0061458280        5.8361775468        7.7028237954
  O         6.7436309779        0.0002662439        7.6979475637
  O         5.0626704957        2.9167911471        7.6949736727
  O         3.3716383519        5.8459254158        7.6948422987
  O         1.6885687069        0.9751291005       16.4202022647
  O         0.0029421771        3.8945309610       16.4203528399
  O        -1.6858432786        6.8130490752       16.4267312320
  O         5.0545923600        0.9752019961       16.4202926515
  O         3.3716009620        3.8931318384       16.4393261297
  O         1.6860593477        6.8097747151       16.4203525027
  O         8.4289340373        0.9732803870       16.4237428521
  O         6.7400978953        3.8945833707       16.4202942600
  O         5.0571483685        6.8096831086       16.4202019487
  O        -0.0001016064        1.9465059669       25.1487508618
  O        -1.6857732066        4.8663198018       25.1487611286
  O        -3.3716563894        7.7863535923       25.1487602003
  O         3.3715765060        1.9465674871       25.1486211768
  O         1.6857897492        4.8664358882       25.1486220253
  O         0.0001080761        7.7863513892       25.1487616974
  O         6.7432599776        1.9465052540       25.1487522922
  O         5.0573641078        4.8664354381       25.1486216519
  O         3.3715773229        7.7864243824       25.1487515221
  O         0.0008171679       -0.0004711854       18.5932438358
  O        -1.6857947058        2.9207483937       18.5932726337
  O        -3.3715218642        5.8397347344       18.5944212740
  O         3.3715836368       -0.0000429593       18.5944223120
  O         1.6852366663        2.9195100661       18.5943410675
  O        -0.0000304688        5.8397459195       18.5944024607
  O         6.7423641559       -0.0004345462       18.5932720261
  O         5.0579249767        2.9195333956       18.5943789695
  O         3.3716015595        5.8403776004       18.5943412951
  O         1.6856944021        0.9732420751        1.1447077218
  O        -0.0000732755        3.8930838952        1.1447088672
  O        -1.6857784207        6.8130114047        1.1447899209
  O         5.0574572827        0.9732430440        1.1447057673
  O         3.3715782467        3.8931466989        1.1449787675
  O         1.6858053967        6.8131137702        1.1447071068
  O         8.4289313476        0.9732823482        1.1443345607
  O         6.7432279231        3.8930815822        1.1447063113
  O         5.0573486896        6.8131145448        1.1447058462
  O         0.0024454098        1.9479306124        9.8682983065
  O        -1.6858060364        4.8642700497        9.8653228104
  O        -3.3734194097        7.7873729733        9.8654897943
  O         3.3714891238        2.0059326054        9.8808936546
  O         1.7368176846        4.8369764583        9.8805662936
  O         0.0018674139        7.7874080566        9.8653229257
  O         6.7407205363        1.9479702712        9.8682867307
  O         5.0059081006        4.8368303076        9.8808918733
  O         3.3716176432        7.7835078890        9.8682978287
  O        -0.0000424737        0.0000238225       22.5832584170
  O        -1.6857698793        2.9197943189       22.5832570408
  O        -3.3716457390        5.8396781797       22.5834756246
  O         3.3715713932        0.0000913770       22.5834765248
  O         1.6858234094        2.9198782095       22.5833716679
  O         0.0000963700        5.8396708397       22.5834726707
  O         6.7432008109        0.0000227060       22.5832577747
  O         5.0573203364        2.9198815547       22.5833769447
  O         3.3715742030        5.8396866505       22.5833708517
  O         1.6859525626        0.9731641774        5.1343924543
  O        -0.0000170105        3.8933230973        5.1343549757
  O        -1.6858628254        6.8130601895        5.1356716325
  O         5.0571721561        0.9731965971        5.1344045249
  O         3.3715879690        3.8931401706        5.1358478477
  O         1.6856238447        6.8129443334        5.1343553398
  O         8.4289285204        0.9732830780        5.1327016354
  O         6.7431251106        3.8933522333        5.1344037973
  O         5.0575426583        6.8129304086        5.1343924078
  O         0.0010412131        1.9471927427       13.8571171249
  O        -1.6858581145        4.8663327267       13.8623927252
  O        -3.3718885248        7.7864879528       13.8621640072
  O         3.3715358626        1.9899031338       13.8467378556
  O         1.7229602067        4.8449749199       13.8471580426
  O         0.0000543471        7.7864199584       13.8623937088
  O         6.7420866193        1.9471810317       13.8571100786
  O         5.0198125938        4.8448041022       13.8467396714
  O         3.3715512549        7.7850935265       13.8571177706
     188
 i =        3, E =     -6889.2252554886
 Zn        -0.0006769285        0.0003904973        5.6980158920
 Zn        -1.6857727644        2.9190683366        5.6980256687
 Zn        -3.3725202745        5.8391799393        5.6990540043
 Zn         3.3715658811        0.0010978785        5.6990541352
 Zn         1.6829606061        2.9182301667        5.6886850509
 Zn         0.0009141860        5.8391980963        5.6989952104
 Zn         6.7438305665        0.0003879464        5.6980259929
 Zn         5.0601719860        2.9182355554        5.6887362304
 Zn         3.3715696051        5.8429895636        5.6886850729
 Zn         1.6855245645        0.9759944266       14.4144862386
 Zn         0.0020696082        3.8916741965       14.4145326317
 Zn        -1.6858165767        6.8130331158       14.4243012877
 Zn         5.0576077423        0.9759297357       14.4145066663
 Zn         3.3713469218        3.8932790599       14.4881070237
 Zn         1.6880970933        6.8119597896       14.4145328564
 Zn         8.4289188884        0.9732890148       14.4182502945
 Zn         6.7409760046        3.8916088434       14.4145072233
 Zn         5.0548773676        6.8118874378       14.4144851019
 Zn        -0.0000711224        1.9465292124       23.1465710188
 Zn        -1.6857755969        4.8664374371       23.1465931141
 Zn        -3.3715635462        7.7863000436       23.1466024213
 Zn         3.3715680970        1.9466245956       23.1466903311
 Zn         1.6858324151        4.8664104822       23.1466889946
 Zn         0.0000044093        7.7862951271       23.1465943703
 Zn         6.7432185330        1.9465285157       23.1465645186
 Zn         5.0573096242        4.8664150076       23.1466908675
 Zn         3.3715718535        7.7863885485       23.1465711092
 In         0.0000790931       -0.0000454800        0.0528967123
 In        -1.6857807135        2.9199494347        0.0528961175
 In        -3.3715386723        5.8397383111        0.0529155359
 In         3.3715718704       -0.0000307168        0.0529139868
 In         1.6857312790        2.9198300238        0.0527821711
 In        -0.0000245694        5.8397406860        0.0529171091
 In         6.7430640977       -0.0000451092        0.0528941294
 In         5.0574132457        2.9198271081        0.0527744603
 In         3.3715702353        5.8397890973        0.0527833938
 In         1.6833540406        0.9751668390        8.7830102216
 In         0.0004382671        3.8902326566        8.7828782893
 In        -1.6857553978        6.8129988035        8.7771664046
 In         5.0597204322        0.9751367175        8.7830114903
 In         3.3713773905        3.8932616017        8.7014557254
 In         1.6885315944        6.8140956315        8.7828778854
 In         8.4289410504        0.9732762959        8.7799950237
 In         6.7427182224        3.8901756564        8.7830120262
 In         5.0545090510        6.8141805154        8.7830078760
 In         0.0001627069        1.9466713913       17.5006497221
 In        -1.6857816805        4.8661915368       17.4996995580
 In        -3.3717343460        7.7863987245       17.4997369434
 In         3.3716004341        1.9421031401       17.5125273150
 In         1.6819036070        4.8686805532       17.5124097365
 In         0.0002142041        7.7864248952       17.4996989233
 In         6.7429876487        1.9466605720       17.5006588602
 In         5.0612417387        4.8686473456       17.5125273631
 In         3.3715666375        7.7861143857       17.5006488416
 Ga        -0.0000191386        0.0000108050       20.5758194217
 Ga        -1.6857932155        2.9198511633       20.5758092132
 Ga        -3.3712944086        5.8398910043       20.5767591007
 Ga         3.3715641935       -0.0003183996       20.5767600648
 Ga         1.6854985196        2.9197084786       20.5771100163
 Ga        -0.0002862545        5.8398924157       20.5767373571
 Ga         6.7431415995        0.0000152472       20.5758106688
 Ga         5.0576205462        2.9197082674       20.5771279895
 Ga         3.3715603744        5.8400522605       20.5771099278
 Ga         1.6858511966        0.9728399690        3.1252782603
 Ga        -0.0003602955        3.8934307730        3.1252841337
 Ga        -1.6857978527        6.8130233553        3.1266902964
 Ga         5.0572855832        0.9728448593        3.1252801246
 Ga         3.3715710642        3.8931504908        3.1256520670
 Ga         1.6853609183        6.8131884385        3.1252839908
 Ga         8.4289160729        0.9732908296        3.1252637567
 Ga         6.7434860679        3.8934301291        3.1252802917
 Ga         5.0577735723        6.8131807061        3.1252784717
 Ga         0.0053447089        1.9495581790       11.8524049895
 Ga        -1.6856809965        4.8664701248       11.8532370392
 Ga        -3.3715180275        7.7862744690       11.8531906500
 Ga         3.3719668181        2.0209994719       11.8460285378
 Ga         1.7506909567        4.8289646957       11.8461630551
 Ga         0.0000250325        7.7861984541       11.8532381343
 Ga         6.7379697483        1.9495590279       11.8524118561
 Ga         4.9930931618        4.8288794607       11.8460289909
 Ga         3.3716574073        7.7801830332       11.8524057317
  O        -0.0000062359        0.0000038196        3.1502063788
  O        -1.6858047420        2.9198581866        3.1502068203
  O        -3.3712970302        5.8398819072        3.1507051241
  O         3.3715693880       -0.0003112118        3.1507062360
  O         1.6858171589        2.9198816529        3.1514858523
  O        -0.0003119366        5.8399063814        3.1507197566
  O         6.7431309695        0.0000223378        3.1502070679
  O         5.0573150199        2.9198851120        3.1514954277
  O         3.3715684221        5.8396909838        3.1514852955
  O         1.7004534177        0.9725220762       11.8757338605
  O         0.0067749282        3.9057950172       11.8757212777
  O        -1.6857862904        6.8130162211       11.8725391738
  O         5.0432190339        0.9726301175       11.8757039774
  O         1.6782210080        6.8008256181       11.8757208217
  O         8.4290041452        0.9732416211       11.8726581940
  O         6.7366396902        3.9057210616       11.8757035512
  O         5.0653520688        6.8006946715       11.8757345758
  O        -0.0003364204        1.9463835517       20.5994957330
  O        -1.6858004551        4.8663106516       20.5997665653
  O        -3.3717033099        7.7863817125       20.5997555757
  O         3.3715495933        1.9464873739       20.5992173547
  O         1.6856939947        4.8664917466       20.5992015156
  O         0.0001028789        7.7863804312       20.5997675410
  O         6.7434493763        1.9463965840       20.5995281290
  O         5.0574208926        4.8664996078       20.5992177309
  O         3.3715666036        7.7866913147       20.5994968493
  O         0.0011964749       -0.0006912025        7.7026833424
  O        -1.6857926681        2.9212136805        7.7027042178
  O        -3.3804680486        5.8346842280        7.7078770571
  O         3.3714842522        0.0102286915        7.7078764572
  O         1.6752996751        2.9137291346        7.6908676181
  O         0.0085287423        5.8348016018        7.7076858074
  O         6.7419630635       -0.0006684386        7.7027036563
  O         5.0677636240        2.9138503644        7.6910212513
  O         3.3716359230        5.8518740730        7.6908675454
  O         1.6896971107        0.9757537648       16.4184023291
  O         0.0040181583        3.8951830807       16.4185538843
  O        -1.6858398623        6.8130461792       16.4261706496
  O         5.0534717610        0.9758216524       16.4184987268
  O         3.3716073357        3.8931282683       16.4532585424
  O         1.6860322755        6.8085160061       16.4185535988
  O         8.4289384830        0.9732779971       16.4226948451
  O         6.7390010248        3.8952446110       16.4185001283
  O         5.0571721822        6.8083932279       16.4184023104
  O         0.0000908608        1.9466132267       25.1489472729
  O        -1.6857710761        4.8664756551       25.1489757390
  O        -3.3715169608        7.7862724995       25.1489776703
  O         3.3715795231        1.9467005497       25.1490435659
  O         1.6859105049        4.8663660439       25.1490437805
  O        -0.0000266066        7.7862721639       25.1489758911
  O         6.7430736433        1.9466129602       25.1489452091
  O         5.0572509099        4.8663651692       25.1490442472
  O         3.3715810661        7.7862041309       25.1489478396
  O         0.0009299621       -0.0005359174       18.5917706156
  O        -1.6857959368        2.9208622986       18.5918162121
  O        -3.3704322931        5.8403686979       18.5942584746
  O         3.3715792989       -0.0013032833       18.5942599265
  O         1.6836468004        2.9185900220       18.5948430782
  O        -0.0011282560        5.8403795226       18.5942387329
  O         6.7422645297       -0.0004905814       18.5918154965
  O         5.0595149378        2.9186157768       18.5948903731
  O         3.3716034921        5.8422144020       18.5948432004
  O         1.6859135585        0.9735648721        1.1438409064
  O         0.0003180959        3.8931097151        1.1438491973
  O        -1.6857769850        6.8130110258        1.1442523406
  O         5.0572436236        0.9735670687        1.1438385533
  O         3.3715813544        3.8931450431        1.1437195465
  O         1.6859783822        6.8127614914        1.1438474042
  O         8.4289345612        0.9732804275        1.1438532150
  O         6.7428405194        3.8931057725        1.1438398006
  O         5.0571773216        6.8127640058        1.1438396641
  O         0.0017975335        1.9475563824        9.8698970656
  O        -1.6858224195        4.8653961060        9.8653553778
  O        -3.3724276372        7.7867992575        9.8655372463
  O         3.3714916553        2.0150329551        9.8805121203
  O         1.7446341971        4.8324645678        9.8800259370
  O         0.0008845862        7.7868586608        9.8653553827
  O         6.7413778458        1.9475907360        9.8698794559
  O         4.9980278972        4.8322783183        9.8805096125
  O         3.3716184256        7.7842565233        9.8698969783
  O         0.0000391752       -0.0000232280       22.5827284727
  O        -1.6857666957        2.9198863614       22.5827238924
  O        -3.3716689629        5.8396619446       22.5831502897
  O         3.3715736266        0.0001196299       22.5831508112
  O         1.6857676580        2.9198467016       22.5832009260
  O         0.0001254838        5.8396541141       22.5831416785
  O         6.7431220924       -0.0000258606       22.5827248087
  O         5.0573758534        2.9198495467       22.5832102115
  O         3.3715727970        5.8397509408       22.5831999644
  O         1.6858849039        0.9716624548        5.1327835090
  O        -0.0013485649        3.8940156556        5.1327418690
  O        -1.6858895005        6.8130751084        5.1371619916
  O         5.0572291503        0.9717006982        5.1328161612
  O         3.3715889670        3.8931398841        5.1359803723
  O         1.6843584446        6.8137511596        5.1327419371
  O         8.4289312530        0.9732812752        5.1319410419
  O         6.7444490549        3.8940506937        5.1328158737
  O         5.0588090035        6.8137394570        5.1327844480
  O         0.0009393358        1.9471307615       13.8576888348
  O        -1.6858911722        4.8668689295       13.8655349749
  O        -3.3714407701        7.7862295035       13.8653135008
  O         3.3715386416        2.0056528506       13.8395850572
  O         1.7364900949        4.8371630035       13.8403031260
  O        -0.0004266609        7.7861803139       13.8655357220
  O         6.7422014395        1.9471142244       13.8576879370
  O         5.0061747990        4.8369272291       13.8395890642
  O         3.3715530824        7.7852128524       13.8576897910
     188
 i =        4, E =     -6889.2253517414
 Zn        -0.0003851373        0.0002222802        5.6983095492
 Zn        -1.6857735822        2.9194045753        5.6983174193
 Zn        -3.3726104640        5.8391289236        5.6992962338
 Zn         3.3715647375        0.0012015973        5.6992961383
 Zn         1.6823406625        2.9178717188        5.6887929743
 Zn         0.0010053324        5.8391454344        5.6992331252
 Zn         6.7435387960        0.0002207934        5.6983174134
 Zn         5.0607899216        2.9178789447        5.6888340895
 Zn         3.3715701820        5.8437054804        5.6887927806
 Zn         1.6855884650        0.9760105303       14.4138366521
 Zn         0.0021340239        3.8917002001       14.4138989624
 Zn        -1.6858050133        6.8130265223       14.4233372827
 Zn         5.0575674002        0.9759459000       14.4138737505
 Zn         3.3713695962        3.8932660817       14.4900558947
 Zn         1.6881068575        6.8118912246       14.4138991506
 Zn         8.4289247589        0.9732854645       14.4186776087
 Zn         6.7409416643        3.8916358379       14.4138743695
 Zn         5.0548956634        6.8118239558       14.4138357071
 Zn        -0.0001353147        1.9464934068       23.1464984333
 Zn        -1.6857755292        4.8663589041       23.1465772549
 Zn        -3.3716308715        7.7863389644       23.1465869115
 Zn         3.3715686183        1.9465602254       23.1467119138
 Zn         1.6857758278        4.8664433858       23.1467100613
 Zn         0.0000728552        7.7863344508       23.1465781308
 Zn         6.7432821482        1.9464919863       23.1464906640
 Zn         5.0573659471        4.8664465860       23.1467125235
 Zn         3.3715711296        7.7864617006       23.1464982184
 In        -0.0000162534        0.0000092730        0.0524476339
 In        -1.6857802573        2.9198381111        0.0524471050
 In        -3.3714609525        5.8397816039        0.0525225497
 In         3.3715735910       -0.0001199258        0.0525210036
 In         1.6857526130        2.9198413992        0.0520994844
 In        -0.0001006282        5.8397847334        0.0525239311
 In         6.7431606904        0.0000098916        0.0524453894
 In         5.0573944348        2.9198384944        0.0520906850
 In         3.3715715226        5.8397651662        0.0521001002
 In         1.6832276974        0.9743574257        8.7850880260
 In        -0.0003418183        3.8905282676        8.7849318683
 In        -1.6857680220        6.8130060503        8.7784608913
 In         5.0598558318        0.9743229566        8.7850653652
 In         3.3713706335        3.8932653812        8.7007839251
 In         1.6878851975        6.8146234315        8.7849319769
 In         8.4289381514        0.9732782224        8.7790759178
 In         6.7434906707        3.8904652283        8.7850659302
 In         5.0551470579        6.8146949063        8.7850856646
 In         0.0001777588        1.9466806813       17.4993603452
 In        -1.6857815829        4.8658950630       17.4981762539
 In        -3.3719910241        7.7865470474       17.4981964775
 In         3.3715993983        1.9413755346       17.5146144746
 In         1.6812692515        4.8690467830       17.5144934078
 In         0.0004709783        7.7865726159       17.4981753998
 In         6.7429733286        1.9466690038       17.4993708710
 In         5.0618713231        4.8690120780       17.5146149257
 In         3.3715660214        7.7860967939       17.4993596589
 Ga         0.0000416836       -0.0000238578       20.5759377084
 Ga        -1.6857933258        2.9199207095       20.5759295851
 Ga        -3.3713037368        5.8398862051       20.5771672959
 Ga         3.3715623156       -0.0003080014       20.5771684437
 Ga         1.6852070490        2.9195402425       20.5775013329
 Ga        -0.0002782843        5.8398882642       20.5771500088
 Ga         6.7430816186       -0.0000202476       20.5759307744
 Ga         5.0579126879        2.9195400058       20.5775168849
 Ga         3.3715595862        5.8403889023       20.5775011000
 Ga         1.6857368552        0.9725566930        3.1258888563
 Ga        -0.0006637056        3.8934769844        3.1258938984
 Ga        -1.6857962381        6.8130221354        3.1275671513
 Ga         5.0573983036        0.9725587903        3.1258904208
 Ga         3.3715683660        3.8931518209        3.1261485610
 Ga         1.6851694700        6.8134276873        3.1258938624
 Ga         8.4289169763        0.9732903017        3.1264217287
 Ga         6.7437899702        3.8934760270        3.1258902467
 Ga         5.0579611339        6.8134215456        3.1258890101
 Ga         0.0049547513        1.9493768371       11.8520709475
 Ga        -1.6857002160        4.8667534641       11.8528781006
 Ga        -3.3712358541        7.7861108024       11.8528458960
 Ga         3.3719420086        2.0213777819       11.8454265466
 Ga         1.7512747271        4.8286276772       11.8455771137
 Ga        -0.0002296357        7.7860731116       11.8528791317
 Ga         6.7383728349        1.9493264602       11.8520770382
 Ga         4.9927496347        4.8287097410       11.8454270420
 Ga         3.3716196043        7.7806116776       11.8520711181
  O        -0.0001696204        0.0000982346        3.1488160941
  O        -1.6858046668        2.9196695031        3.1488189189
  O        -3.3711528320        5.8399665127        3.1494257468
  O         3.3715690065       -0.0004787842        3.1494258810
  O         1.6857908812        2.9198681948        3.1504901449
  O        -0.0004566385        5.8399901985        3.1494373308
  O         6.7432945462        0.0001161612        3.1488182555
  O         5.0573400335        2.9198707622        3.1505026148
  O         3.3715668119        5.8397200654        3.1504900502
  O         1.6990375785        0.9728220580       11.8765818424
  O         0.0064085094        3.9045107244       11.8765684445
  O        -1.6857475666        6.8129939978       11.8753688185
  O         5.0445991490        0.9729621354       11.8765477603
  O         1.6791504400        6.8017851133       11.8765681422
  O         8.4290187560        0.9732332173       11.8749600313
  O         6.7370411425        3.9043602101       11.8765475047
  O         5.0643836897        6.8017694167       11.8765832561
  O        -0.0006506445        1.9462012872       20.5989285231
  O        -1.6857998847        4.8663452456       20.5989934210
  O        -3.3716730226        7.7863636271       20.5989859781
  O         3.3715501294        1.9465442594       20.5982048395
  O         1.6857421426        4.8664635149       20.5981894150
  O         0.0000724790        7.7863634561       20.5989935878
  O         6.7437640050        1.9462142363       20.5989569904
  O         5.0573715024        4.8664714857       20.5982062084
  O         3.3715676191        7.7870547792       20.5989291662
  O         0.0002639345       -0.0001528496        7.7021349928
  O        -1.6858001966        2.9201394463        7.7021487985
  O        -3.3804290136        5.8347012993        7.7082081023
  O         3.3714892291        0.0101862937        7.7082073894
  O         1.6752950778        2.9137319129        7.6912624648
  O         0.0084898645        5.8348244326        7.7080020474
  O         6.7428898512       -0.0001243929        7.7021480718
  O         5.0677448014        2.9138610632        7.6914027968
  O         3.3716313225        5.8518768375        7.6912621581
  O         1.6901646564        0.9760306332       16.4184975946
  O         0.0044821058        3.8954564687       16.4186535839
  O        -1.6858300597        6.8130405299       16.4256398960
  O         5.0530036999        0.9760889073       16.4185920267
  O         3.3716066004        3.8931285607       16.4572953829
  O         1.6860275192        6.8079776809       16.4186532296
  O         8.4289387169        0.9732776138       16.4228746570
  O         6.7385356140        3.8955164293       16.4185933511
  O         5.0571662346        6.8078495948       16.4184977452
  O         0.0000471458        1.9465900081       25.1488304585
  O        -1.6857703312        4.8664230487       25.1489330639
  O        -3.3715627367        7.7862992796       25.1489355113
  O         3.3715790294        1.9465510662       25.1489401005
  O         1.6857789907        4.8664418341       25.1489406016
  O         0.0000198853        7.7862978779       25.1489329702
  O         6.7431169115        1.9465874516       25.1488267391
  O         5.0573793849        4.8664408799       25.1489405433
  O         3.3715789511        7.7862538395       25.1488304622
  O         0.0009773284       -0.0005632655       18.5915859983
  O        -1.6857959247        2.9209198843       18.5916387651
  O        -3.3696085326        5.8408460625       18.5946466153
  O         3.3715787395       -0.0022549003       18.5946480945
  O         1.6828013006        2.9181100364       18.5957215477
  O        -0.0019495951        5.8408533837       18.5946338351
  O         6.7422143383       -0.0005191033       18.5916379337
  O         5.0603614202        2.9181266011       18.5957666876
  O         3.3715963879        5.8431869563       18.5957214723
  O         1.6859296616        0.9735849128        1.1443654328
  O         0.0003423305        3.8931138531        1.1443740107
  O        -1.6857768820        6.8130113034        1.1447213215
  O         5.0572279738        0.9735874793        1.1443621802
  O         3.3715811699        3.8931448276        1.1443352675
  O         1.6859869832        6.8127381185        1.1443725848
  O         8.4289328757        0.9732809897        1.1444305587
  O         6.7428153203        3.8931088018        1.1443630911
  O         5.0571680457        6.8127400214        1.1443643406
  O         0.0010822910        1.9471660397        9.8697290814
  O        -1.6858068770        4.8660923284        9.8659409151
  O        -3.3718374358        7.7864586326        9.8660841127
  O         3.3715325486        2.0112662628        9.8782267028
  O         1.7413634686        4.8343524415        9.8777911436
  O         0.0002888489        7.7864969952        9.8659408852
  O         6.7420826099        1.9471837099        9.8697047509
  O         5.0013104669        4.8341268746        9.8782241184
  O         3.3715985013        7.7850708513        9.8697285195
  O         0.0000663610       -0.0000389194       22.5830121410
  O        -1.6857669414        2.9199186776       22.5830074682
  O        -3.3716311625        5.8396825313       22.5834796888
  O         3.3715747239        0.0000764880       22.5834802666
  O         1.6858126319        2.9198728294       22.5834369054
  O         0.0000874280        5.8396759585       22.5834734237
  O         6.7430945498       -0.0000416749       22.5830081281
  O         5.0573312393        2.9198752448       22.5834444886
  O         3.3715731016        5.8396985117       22.5834359578
  O         1.6859946991        0.9713349013        5.1327785312
  O        -0.0015801347        3.8942774577        5.1327382450
  O        -1.6858862042        6.8130732306        5.1384695825
  O         5.0571195508        0.9713706219        5.1328156150
  O         3.3715852993        3.8931417627        5.1365962674
  O         1.6840159168        6.8138209306        5.1327383107
  O         8.4289297941        0.9732820760        5.1332936176
  O         6.7446804696        3.8943105607        5.1328151640
  O         5.0591478131        6.8138083234        5.1327794776
  O         0.0005599240        1.9469003047       13.8577628544
  O        -1.6858772362        4.8664431229       13.8652741959
  O        -3.3717772034        7.7864238844       13.8651121062
  O         3.3715597570        2.0045970634       13.8386254897
  O         1.7355860709        4.8376849378       13.8393740529
  O        -0.0000509372        7.7863811496       13.8652746685
  O         6.7425939669        1.9468877607       13.8577707277
  O         5.0071000077        4.8374371171       13.8386299390
  O         3.3715633580        7.7856564758       13.8577631126
     188
 i =        5, E =     -6889.2253992774
 Zn         0.0000451134       -0.0000258903        5.6988455441
 Zn        -1.6857768099        2.9199000466        5.6988412604
 Zn        -3.3726567842        5.8391026666        5.6998861404
 Zn         3.3715641483        0.0012548526        5.6998858991
 Zn         1.6819107874        2.9176210568        5.6893754337
 Zn         0.0010524103        5.8391183567        5.6998181043
 Zn         6.7431080353       -0.0000241070        5.6988411199
 Zn         5.0612175606        2.9176320989        5.6894127139
 Zn         3.3715724897        5.8442029900        5.6893752061
 Zn         1.6861345043        0.9762922547       14.4128396321
 Zn         0.0026878818        3.8920172728       14.4129072814
 Zn        -1.6857863180        6.8130157704       14.4219927607
 Zn         5.0570520824        0.9762399496       14.4129060915
 Zn         3.3714173717        3.8932384959       14.4923492220
 Zn         1.6881094418        6.8112532537       14.4129073598
 Zn         8.4289371084        0.9732782338       14.4185468965
 Zn         6.7404290978        3.8919353941       14.4129067840
 Zn         5.0549249814        6.8112098629       14.4128387453
 Zn        -0.0002883733        1.9464045938       23.1464043941
 Zn        -1.6857764051        4.8662521795       23.1466552391
 Zn        -3.3717231210        7.7863921716       23.1466644959
 Zn         3.3715693513        1.9465065391       23.1468124191
 Zn         1.6857297676        4.8664701783       23.1468099195
 Zn         0.0001648826        7.7863891360       23.1466563334
 Zn         6.7434350731        1.9464032745       23.1463960500
 Zn         5.0574126519        4.8664727270       23.1468130497
 Zn         3.3715718847        7.7866388079       23.1464043205
 In        -0.0001364814        0.0000783461        0.0528229468
 In        -1.6857786586        2.9196967702        0.0528225459
 In        -3.3713366655        5.8398523511        0.0529456787
 In         3.3715749110       -0.0002626600        0.0529443013
 In         1.6858023893        2.9198688332        0.0522456366
 In        -0.0002224332        5.8398549341        0.0529468898
 In         6.7432839496        0.0000792091        0.0528206292
 In         5.0573474818        2.9198657313        0.0522355334
 In         3.3715725460        5.8397084825        0.0522458958
 In         1.6835915010        0.9742402415        8.7868819431
 In        -0.0002729140        3.8909192908        8.7867214088
 In        -1.6857777539        6.8130114797        8.7782257778
 In         5.0594970653        0.9742105302        8.7868224686
 In         3.3713693161        3.8932664426        8.6990393558
 In         1.6875810959        6.8143684477        8.7867214279
 In         8.4289407109        0.9732767012        8.7768086010
 In         6.7434081853        3.8908327019        8.7868232503
 In         5.0554303510        6.8144382968        8.7868796470
 In         0.0002714012        1.9467326086       17.4981687765
 In        -1.6857823864        4.8655871250       17.4964063280
 In        -3.3722594327        7.7867018547       17.4963963816
 In         3.3715966564        1.9408020869       17.5183702392
 In         1.6807683793        4.8693356827       17.5182438787
 In         0.0007368748        7.7867271888       17.4964054265
 In         6.7428819655        1.9467215636       17.4981790781
 In         5.0623664303        4.8693015110       17.5183708963
 In         3.3715681728        7.7859898759       17.4981681360
 Ga        -0.0000320852        0.0000188008       20.5753522847
 Ga        -1.6857940880        2.9198368294       20.5753445916
 Ga        -3.3710406071        5.8400403545       20.5770136835
 Ga         3.3715611225       -0.0006124113       20.5770146133
 Ga         1.6849528264        2.9193953772       20.5775681490
 Ga        -0.0005434586        5.8400408897       20.5769996873
 Ga         6.7431540938        0.0000229624       20.5753456022
 Ga         5.0581661738        2.9193936198       20.5775811542
 Ga         3.3715579044        5.8406807039       20.5775678830
 Ga         1.6857472602        0.9725039782        3.1257342378
 Ga        -0.0007053448        3.8935153087        3.1257369878
 Ga        -1.6857955002        6.8130219944        3.1275986417
 Ga         5.0573865487        0.9725044166        3.1257351434
 Ga         3.3715649076        3.8931535877        3.1260690346
 Ga         1.6851152901        6.8134442692        3.1257368176
 Ga         8.4289166673        0.9732903682        3.1265921758
 Ga         6.7438314649        3.8935135429        3.1257350276
 Ga         5.0580120717        6.8134390718        3.1257342377
 Ga         0.0043609294        1.9490740510       11.8525630929
 Ga        -1.6856364461        4.8667128374       11.8533585788
 Ga        -3.3712737310        7.7861314635       11.8533438645
 Ga         3.3718818058        2.0217799351       11.8461273775
 Ga         1.7522589280        4.8280596705       11.8462789591
 Ga        -0.0001625677        7.7860372355       11.8533597636
 Ga         6.7389354877        1.9490020423       11.8525675106
 Ga         4.9923624039        4.8285559580       11.8461279915
 Ga         3.3715852812        7.7812770303       11.8525630939
  O        -0.0002411826        0.0001396518        3.1494098581
  O        -1.6858052446        2.9195885543        3.1494131197
  O        -3.3708643430        5.8401321523        3.1500494292
  O         3.3715701534       -0.0008112549        3.1500498825
  O         1.6859478567        2.9199605759        3.1512706507
  O        -0.0007455471        5.8401570255        3.1500585577
  O         6.7433641758        0.0001570138        3.1494122989
  O         5.0571815869        2.9199625042        3.1512861432
  O         3.3715652694        5.8395376435        3.1512712619
  O         1.6968923850        0.9735053927       11.8760469890
  O         0.0061418895        3.9024274844       11.8760421796
  O        -1.6857462609        6.8129930897       11.8760627846
  O         5.0466622626        0.9736428630       11.8759982572
  O         1.6808215784        6.8030578762       11.8760416192
  O         8.4290016453        0.9732427133       11.8752557795
  O         6.7374804390        3.9022339639       11.8759981728
  O         5.0627184500        6.8032826882       11.8760486363
  O        -0.0010012824        1.9459982504       20.5995270619
  O        -1.6857999405        4.8661736132       20.5995949615
  O        -3.3718218662        7.7864500754       20.5995858522
  O         3.3715498780        1.9463337763       20.5980636842
  O         1.6855578271        4.8665695970       20.5980541422
  O         0.0002214371        7.7864489245       20.5995954524
  O         6.7441146220        1.9460120807       20.5995575606
  O         5.0575542497        4.8665770138       20.5980644040
  O         3.3715679357        7.7874595893       20.5995280466
  O         0.0001568864       -0.0000910816        7.7015527257
  O        -1.6858003070        2.9200222587        7.7015528786
  O        -3.3800516915        5.8349151511        7.7086514236
  O         3.3714929977        0.0097528234        7.7086508658
  O         1.6753062795        2.9137467273        7.6919650304
  O         0.0081121377        5.8350428838        7.7084261128
  O         6.7429915763       -0.0000654571        7.7015520816
  O         5.0676970828        2.9138888417        7.6920909371
  O         3.3716240612        5.8518597235        7.6919643796
  O         1.6908962710        0.9764852988       16.4186109202
  O         0.0052261800        3.8958665130       16.4187651062
  O        -1.6858161984        6.8130327848       16.4248878413
  O         5.0522739886        0.9765335418       16.4187067652
  O         3.3716098189        3.8931266133       16.4626913233
  O         1.6860444484        6.8071283852       16.4187647595
  O         8.4289380600        0.9732778314       16.4225723301
  O         6.7377856638        3.8959259993       16.4187083205
  O         5.0571385052        6.8069885494       16.4186110847
  O         0.0000084882        1.9465688335       25.1486885797
  O        -1.6857700683        4.8662711992       25.1489424726
  O        -3.3716941020        7.7863756806       25.1489445621
  O         3.3715784346        1.9464392804       25.1487999440
  O         1.6856801387        4.8664987959       25.1488010682
  O         0.0001518248        7.7863731594       25.1489427671
  O         6.7431551430        1.9465655940       25.1486838634
  O         5.0574765939        4.8664980302       25.1488003164
  O         3.3715779568        7.7862973054       25.1486886186
  O         0.0011337982       -0.0006533358       18.5906590918
  O        -1.6857974561        2.9210995043       18.5907172617
  O        -3.3687004282        5.8413757353       18.5945031751
  O         3.3715737496       -0.0033063381       18.5945045383
  O         1.6816486240        2.9174516483       18.5967942865
  O        -0.0028580331        5.8413778907       18.5944975784
  O         6.7420578957       -0.0006080832       18.5907162874
  O         5.0615159914        2.9174601264       18.5968348600
  O         3.3715899642        5.8445145987       18.5967941603
  O         1.6859160170        0.9735531190        1.1441674302
  O         0.0003063208        3.8931180570        1.1441755232
  O        -1.6857772702        6.8130109619        1.1443242141
  O         5.0572421240        0.9735556543        1.1441629216
  O         3.3715813494        3.8931446845        1.1444945818
  O         1.6859649801        6.8127673803        1.1441740276
  O         8.4289312160        0.9732816930        1.1438989221
  O         6.7428490375        3.8931125869        1.1441636990
  O         5.0571884921        6.8127677642        1.1441662271
  O         0.0003774667        1.9467845660        9.8701234227
  O        -1.6858151923        4.8667189139        9.8675663720
  O        -3.3712956337        7.7861461522        9.8676605216
  O         3.3715773752        2.0066299451        9.8764270776
  O         1.7374074647        4.8366363909        9.8760284377
  O        -0.0002581578        7.7861902808        9.8675664868
  O         6.7427887298        1.9467760151        9.8700902649
  O         5.0053477989        4.8364066667        9.8764243196
  O         3.3715761678        7.7858718068        9.8701230499
  O         0.0001596486       -0.0000926012       22.5828900754
  O        -1.6857666753        2.9200265628       22.5828849406
  O        -3.3716482789        5.8396718058       22.5833716490
  O         3.3715752178        0.0000965097       22.5833716868
  O         1.6858758245        2.9199087404       22.5832588433
  O         0.0001036430        5.8396669374       22.5833671200
  O         6.7430016310       -0.0000962711       22.5828851156
  O         5.0572684518        2.9199114489       22.5832649066
  O         3.3715738300        5.8396260735       22.5832580194
  O         1.6861805581        0.9710848793        5.1321933969
  O        -0.0017056489        3.8945673779        5.1321548015
  O        -1.6858814777        6.8130704438        5.1394488338
  O         5.0569325398        0.9711208634        5.1322354364
  O         3.3715806327        3.8931443430        5.1368185133
  O         1.6837023035        6.8137846339        5.1321547692
  O         8.4289299922        0.9732818669        5.1341979241
  O         6.7448033875        3.8945972870        5.1322353701
  O         5.0594574328        6.8137725456        5.1321944518
  O         0.0003953570        1.9467901984       13.8589855665
  O        -1.6858729794        4.8656657451       13.8656584809
  O        -3.3723954601        7.7867809944       13.8655709430
  O         3.3715881476        2.0033617494       13.8380129680
  O         1.7345707586        4.8382710518       13.8388073816
  O         0.0006244521        7.7867661613       13.8656588699
  O         6.7427854847        1.9467773906       13.8590035314
  O         5.0081842030        4.8380302903       13.8380185307
  O         3.3715769440        7.7858540225       13.8589852654
     188
 i =        6, E =     -6889.2254098091
 Zn         0.0000538686       -0.0000310283        5.6991398199
 Zn        -1.6857759637        2.9199099349        5.6991312137
 Zn        -3.3726168881        5.8391261496        5.7001233030
 Zn         3.3715639215        0.0012085891        5.7001231221
 Zn         1.6819203529        2.9176256602        5.6893370703
 Zn         0.0010123533        5.8391414468        5.7000559740
 Zn         6.7430999976       -0.0000297555        5.6991312334
 Zn         5.0612054386        2.9176390350        5.6893733526
 Zn         3.3715730821        5.8441925695        5.6893367496
 Zn         1.6863001408        0.9764294245       14.4127142580
 Zn         0.0029143157        3.8921038791       14.4127549356
 Zn        -1.6857830522        6.8130138642       14.4218614812
 Zn         5.0568864468        0.9763743849       14.4127806172
 Zn         3.3714407373        3.8932246644       14.4945652448
 Zn         1.6881478187        6.8110137878       14.4127549909
 Zn         8.4289371124        0.9732782694       14.4184089432
 Zn         6.7402296360        3.8920119693       14.4127810757
 Zn         5.0548888744        6.8109973886       14.4127130289
 Zn        -0.0004036959        1.9463373482       23.1464162095
 Zn        -1.6857766855        4.8661770901       23.1467054789
 Zn        -3.3717880892        7.7864297640       23.1467146415
 Zn         3.3715693699        1.9464441714       23.1469610410
 Zn         1.6856759074        4.8665012520       23.1469583283
 Zn         0.0002300265        7.7864267057       23.1467064567
 Zn         6.7435510798        1.9463364709       23.1464074714
 Zn         5.0574668594        4.8665039566       23.1469617398
 Zn         3.3715724094        7.7867722118       23.1464157319
 In        -0.0001322821        0.0000760007        0.0526597954
 In        -1.6857784251        2.9197008033        0.0526589817
 In        -3.3713204904        5.8398613287        0.0528237328
 In         3.3715752940       -0.0002809921        0.0528225617
 In         1.6857813034        2.9198561683        0.0521393355
 In        -0.0002380305        5.8398639347        0.0528245024
 In         6.7432804123        0.0000770586        0.0526574051
 In         5.0573693756        2.9198531127        0.0521284069
 In         3.3715728376        5.8397328766        0.0521392010
 In         1.6836620500        0.9744503927        8.7871780280
 In        -0.0000449962        3.8908887544        8.7870528101
 In        -1.6857782146        6.8130117202        8.7774121091
 In         5.0594220150        0.9744152307        8.7871216067
 In         3.3713683635        3.8932669802        8.6973420095
 In         1.6877216246        6.8141862207        8.7870528495
 In         8.4289418653        0.9732760945        8.7757117161
 In         6.7431932511        3.8907954418        8.7871228509
 In         5.0552835040        6.8142721101        8.7871758023
 In         0.0002125916        1.9467007759       17.4977658329
 In        -1.6857803401        4.8655119434       17.4957915459
 In        -3.3723222552        7.7867381706       17.4957719083
 In         3.3715963557        1.9407165262       17.5197761403
 In         1.6806917632        4.8693801454       17.5196351793
 In         0.0008033025        7.7867628715       17.4957908244
 In         6.7429419720        1.9466866008       17.4977789293
 In         5.0624405709        4.8693445795       17.5197765298
 In         3.3715662167        7.7860566497       17.4977652639
 Ga        -0.0000326763        0.0000191262       20.5753060651
 Ga        -1.6857942149        2.9198352555       20.5752999437
 Ga        -3.3709635710        5.8400850584       20.5771206918
 Ga         3.3715605580       -0.0007018495       20.5771215796
 Ga         1.6848772020        2.9193520421       20.5778413204
 Ga        -0.0006200575        5.8400853173       20.5771074145
 Ga         6.7431551489        0.0000233533       20.5753008216
 Ga         5.0582418349        2.9193498686       20.5778557592
 Ga         3.3715578976        5.8407686044       20.5778411515
 Ga         1.6857774528        0.9725599572        3.1259658363
 Ga        -0.0006412809        3.8935122641        3.1259678095
 Ga        -1.6857962432        6.8130224118        3.1277758690
 Ga         5.0573559071        0.9725616759        3.1259663551
 Ga         3.3715657189        3.8931533953        3.1263171587
 Ga         1.6851496876        6.8133904040        3.1259677205
 Ga         8.4289165725        0.9732904833        3.1268095979
 Ga         6.7437662236        3.8935111559        3.1259663652
 Ga         5.0579790858        6.8133846715        3.1259661690
 Ga         0.0044550083        1.9491524036       11.8524437728
 Ga        -1.6855679801        4.8663907575       11.8531660443
 Ga        -3.3715411487        7.7862848891       11.8531513606
 Ga         3.3718480019        2.0237564641       11.8464734066
 Ga         1.7545803698        4.8267199420       11.8466237803
 Ga         0.0001507440        7.7861381014       11.8531668577
 Ga         6.7388296151        1.9490633716       11.8524422047
 Ga         4.9906253425        4.8275927158       11.8464742247
 Ga         3.3715647288        7.7811560428       11.8524438813
  O        -0.0002843050        0.0001643644        3.1491954184
  O        -1.6858068801        2.9195398081        3.1491991715
  O        -3.3707332767        5.8402061772        3.1497180739
  O         3.3715712605       -0.0009617830        3.1497186386
  O         1.6860194384        2.9200011941        3.1509257195
  O        -0.0008768754        5.8402327556        3.1497257886
  O         6.7434057769        0.0001829068        3.1491988797
  O         5.0571111769        2.9200028932        3.1509410954
  O         3.3715658373        5.8394557429        3.1509257154
  O         1.6967545449        0.9739047619       11.8763595397
  O         0.0066041532        3.9021573171       11.8763678835
  O        -1.6857532128        6.8129970718       11.8763346166
  O         5.0467651443        0.9740443115       11.8763227157
  O         1.6812868014        6.8027931182       11.8763681194
  O         8.4289942989        0.9732468817       11.8754429178
  O         6.7371816833        3.9019445573       11.8763222915
  O         5.0623028935        6.8032005596       11.8763605450
  O        -0.0011499930        1.9459115325       20.5994100262
  O        -1.6858000830        4.8661411175       20.5994801169
  O        -3.3718499970        7.7864660426       20.5994732703
  O         3.3715500305        1.9462480925       20.5978016748
  O         1.6854844454        4.8666123510       20.5977947172
  O         0.0002492810        7.7864654351       20.5994805131
  O         6.7442630756        1.9459259995       20.5994412101
  O         5.0576282957        4.8666197195       20.5978025379
  O         3.3715685738        7.7876322023       20.5994105818
  O         0.0007873062       -0.0004550014        7.7017214093
  O        -1.6857939675        2.9207505733        7.7017210078
  O        -3.3800195468        5.8349338827        7.7089340623
  O         3.3714929553        0.0097157356        7.7089335961
  O         1.6752543588        2.9137143083        7.6919276215
  O         0.0080737363        5.8350652098        7.7087088656
  O         6.7423640762       -0.0004352759        7.7017205073
  O         5.0677361692        2.9138664505        7.6920538044
  O         3.3716259986        5.8519210510        7.6919268401
  O         1.6912460117        0.9767563062       16.4187212343
  O         0.0056295290        3.8960275454       16.4188631768
  O        -1.6858145128        6.8130320435       16.4246700017
  O         5.0519262180        0.9768072094       16.4188126791
  O         3.3716185133        3.8931214510       16.4646794084
  O         1.6861066512        6.8066986583       16.4188626995
  O         8.4289384661        0.9732778111       16.4223791517
  O         6.7373749867        3.8960898361       16.4188144008
  O         5.0570785014        6.8065503320       16.4187212757
  O         0.0001083632        1.9466254168       25.1487133265
  O        -1.6857698828        4.8662885180       25.1489798782
  O        -3.3716788570        7.7863669699       25.1489818453
  O         3.3715790634        1.9465474478       25.1488761313
  O         1.6857751192        4.8664438747       25.1488777032
  O         0.0001364751        7.7863645654       25.1489801308
  O         6.7430563181        1.9466227708       25.1487079748
  O         5.0573827780        4.8664430743       25.1488766163
  O         3.3715789392        7.7861827912       25.1487130429
  O         0.0011838150       -0.0006825154       18.5904225801
  O        -1.6857983129        2.9211535782       18.5904861483
  O        -3.3684879075        5.8415005679       18.5945223873
  O         3.3715723049       -0.0035524653       18.5945235893
  O         1.6813596335        2.9172851491       18.5973538300
  O        -0.0030711105        5.8415008205       18.5945196165
  O         6.7420104965       -0.0006342813       18.5904851233
  O         5.0618068375        2.9172921688       18.5973957763
  O         3.3715895579        5.8448477071       18.5973539480
  O         1.6859433140        0.9736023634        1.1443249838
  O         0.0003627985        3.8931168533        1.1443333660
  O        -1.6857773629        6.8130114015        1.1443459275
  O         5.0572149828        0.9736058185        1.1443202609
  O         3.3715812901        3.8931445831        1.1445936106
  O         1.6859946166        6.8127185776        1.1443318675
  O         8.4289320937        0.9732813306        1.1439547584
  O         6.7427927381        3.8931110532        1.1443211409
  O         5.0571590608        6.8127196767        1.1443240399
  O         0.0002976710        1.9467286872        9.8697963786
  O        -1.6858159389        4.8668019880        9.8677798057
  O        -3.3712219224        7.7861036298        9.8678663752
  O         3.3715763927        2.0076812467        9.8765190008
  O         1.7383960345        4.8360654821        9.8760703204
  O        -0.0003302824        7.7861490293        9.8677793732
  O         6.7428634653        1.9467328698        9.8697574109
  O         5.0044359851        4.8358819112        9.8765154424
  O         3.3715845747        7.7859690520        9.8697960611
  O         0.0001947091       -0.0001128094       22.5829818607
  O        -1.6857660572        2.9200667144       22.5829771422
  O        -3.3716612619        5.8396642814       22.5834338912
  O         3.3715754517        0.0001115152       22.5834339422
  O         1.6859093249        2.9199277333       22.5833044046
  O         0.0001162199        5.8396594532       22.5834302599
  O         6.7429671276       -0.0001165642       22.5829773229
  O         5.0572349891        2.9199308455       22.5833112221
  O         3.3715741182        5.8395872245       22.5833036363
  O         1.6862168548        0.9710817929        5.1323118662
  O        -0.0016890352        3.8946007607        5.1322715019
  O        -1.6858820379        6.8130707509        5.1398845077
  O         5.0568958464        0.9711190343        5.1323561509
  O         3.3715779318        3.8931459737        5.1372639077
  O         1.6836815053        6.8137536770        5.1322715194
  O         8.4289306771        0.9732814994        5.1344430945
  O         6.7447865478        3.8946301340        5.1323563748
  O         5.0594781349        6.8137426312        5.1323131481
  O         0.0005089434        1.9468485159       13.8594545743
  O        -1.6858720691        4.8655668188       13.8655263126
  O        -3.3724717121        7.7868249682       13.8654497133
  O         3.3715935306        2.0041878624       13.8376728260
  O         1.7353409382        4.8378263512       13.8385358390
  O         0.0007106820        7.7868147935       13.8655264725
  O         6.7426724240        1.9468427888       13.8594680862
  O         5.0074709453        4.8376120066       13.8376798211
  O         3.3715831449        7.7857266210       13.8594542275
     188
 i =        7, E =     -6889.2254329851
 Zn         0.0001275293       -0.0000738449        5.6996017076
 Zn        -1.6857712780        2.9199963195        5.6996003221
 Zn        -3.3725028181        5.8391921357        5.7005454791
 Zn         3.3715640823        0.0010768688        5.7005452951
 Zn         1.6819856011        2.9176626019        5.6889675372
 Zn         0.0009001692        5.8392060588        5.7004906411
 Zn         6.7430278684       -0.0000769117        5.6996003616
 Zn         5.0611309904        2.9176818529        5.6890040551
 Zn         3.3715731805        5.8441181394        5.6889669246
 Zn         1.6865323664        0.9768215054       14.4123889404
 Zn         0.0034661385        3.8921553939       14.4123246092
 Zn        -1.6857703691        6.8130063447       14.4211413038
 Zn         5.0566483864        0.9767424921       14.4124448637
 Zn         3.3715191401        3.8931782424       14.5009144522
 Zn         1.6883795677        6.8105099001       14.4123246417
 Zn         8.4289324346        0.9732810923       14.4180897369
 Zn         6.7397907808        3.8920350464       14.4124440933
 Zn         5.0546649005        6.8105985897       14.4123867337
 Zn        -0.0007055695        1.9461608230       23.1463866464
 Zn        -1.6857772818        4.8659890071       23.1467382139
 Zn        -3.3719506923        7.7865238783       23.1467465205
 Zn         3.3715696803        1.9462617723       23.1472698951
 Zn         1.6855192942        4.8665915818       23.1472656354
 Zn         0.0003924042        7.7865211450       23.1467390808
 Zn         6.7438545455        1.9461612168       23.1463771047
 Zn         5.0576249950        4.8665949163       23.1472706078
 Zn         3.3715741731        7.7871221755       23.1463861365
 In        -0.0001001740        0.0000575089        0.0525948310
 In        -1.6857778889        2.9197358266        0.0525921763
 In        -3.3713057726        5.8398688443        0.0528831296
 In         3.3715760018       -0.0002971867        0.0528820890
 In         1.6857834109        2.9198555317        0.0522708909
 In        -0.0002517526        5.8398717430        0.0528838127
 In         6.7432504807        0.0000592037        0.0525906447
 In         5.0573694389        2.9198532071        0.0522576679
 In         3.3715739084        5.8397311675        0.0522708153
 In         1.6837461321        0.9748435747        8.7885551851
 In         0.0003961919        3.8908003896        8.7885632892
 In        -1.6857770497        6.8130108660        8.7760824687
 In         5.0593261502        0.9747850973        8.7885160252
 In         3.3713701876        3.8932660169        8.6935886777
 In         1.6880190556        6.8138479764        8.7885632044
 In         8.4289412445        0.9732766035        8.7733813273
 In         6.7428241297        3.8906940089        8.7885192633
 In         5.0549846359        6.8140021900        8.7885537596
 In         0.0000780889        1.9466328924       17.4967105892
 In        -1.6857721088        4.8653062749       17.4943007266
 In        -3.3724908763        7.7868354878       17.4942648456
 In         3.3715986263        1.9403412228       17.5236615086
 In         1.6803608748        4.8695713385       17.5234497822
 In         0.0009854338        7.7868585326       17.4943005742
 In         6.7430773499        1.9466078246       17.4967361527
 In         5.0627671110        4.8695303473       17.5236606393
 In         3.3715582036        7.7862069215       17.4967096798
 Ga        -0.0000357589        0.0000209248       20.5750662217
 Ga        -1.6857943957        2.9198298798       20.5750661413
 Ga        -3.3708298282        5.8401632079       20.5773211263
 Ga         3.3715599662       -0.0008569659       20.5773219681
 Ga         1.6846745113        2.9192358711       20.5784676094
 Ga        -0.0007531584        5.8401622258       20.5773080135
 Ga         6.7431596679        0.0000262849       20.5750671854
 Ga         5.0584451024        2.9192325026       20.5784881530
 Ga         3.3715569205        5.8410021211       20.5784673299
 Ga         1.6857890027        0.9725955162        3.1262023526
 Ga        -0.0006036429        3.8935039494        3.1262022630
 Ga        -1.6857966855        6.8130224877        3.1278336073
 Ga         5.0573435630        0.9725991024        3.1262020528
 Ga         3.3715655345        3.8931536240        3.1264614895
 Ga         1.6851757688        6.8133619761        3.1262021828
 Ga         8.4289169573        0.9732901007        3.1271220996
 Ga         6.7437278107        3.8935030201        3.1262019677
 Ga         5.0579542708        6.8133569149        3.1262024309
 Ga         0.0049496595        1.9495687303       11.8521841083
 Ga        -1.6853230535        4.8657268688       11.8525882236
 Ga        -3.3720308740        7.7865636698       11.8525577825
 Ga         3.3716696005        2.0315826770       11.8473724602
 Ga         1.7640671546        4.8212448666       11.8475526947
 Ga         0.0008489390        7.7862543472       11.8525885386
 Ga         6.7383092170        1.9493653898       11.8521683469
 Ga         4.9837208951        4.8238148660       11.8473739087
 Ga         3.3714529877        7.7805186797       11.8521845074
  O        -0.0005054569        0.0002920806        3.1492351927
  O        -1.6858099086        2.9192855757        3.1492404571
  O        -3.3703862052        5.8404036543        3.1496616969
  O         3.3715737826       -0.0013613587        3.1496620851
  O         1.6861418431        2.9200703358        3.1509577994
  O        -0.0012252861        5.8404339913        3.1496653058
  O         6.7436243891        0.0003127477        3.1492400381
  O         5.0569903203        2.9200727654        3.1509742629
  O         3.3715672401        5.8393152477        3.1509575634
  O         1.6970201867        0.9752658008       11.8768098339
  O         0.0087251986        3.9019609468       11.8768285496
  O        -1.6857544997        6.8129977466       11.8770036174
  O         5.0463375269        0.9754581429       11.8767791508
  O         1.6825180701        6.8010561344       11.8768296918
  O         8.4289833502        0.9732533608       11.8758851583
  O         6.7357325640        3.9016107176       11.8767785907
  O         5.0612539458        6.8022814598       11.8768103583
  O        -0.0015833166        1.9456591677       20.5995401894
  O        -1.6858009727        4.8660721913       20.5995263469
  O        -3.3719095771        7.7865003545       20.5995244596
  O         3.3715503868        1.9460455511       20.5975251531
  O         1.6853094515        4.8667132447       20.5975237369
  O         0.0003087151        7.7865005683       20.5995267664
  O         6.7446964323        1.9456758324       20.5995751342
  O         5.0578038861        4.8667207166       20.5975259801
  O         3.3715705373        7.7881335860       20.5995408882
  O         0.0021484852       -0.0012408584        7.7019007588
  O        -1.6857734312        2.9223294959        7.7019234945
  O        -3.3801684532        5.8348434390        7.7095181514
  O         3.3714971568        0.0098904634        7.7095177703
  O         1.6748007429        2.9134193018        7.6915045805
  O         0.0082078686        5.8349878733        7.7093093428
  O         6.7410073662       -0.0012428944        7.7019232718
  O         5.0681655683        2.9136184046        7.6916472959
  O         3.3716539641        5.8524621092        7.6915032095
  O         1.6921682787        0.9774322295       16.4189487050
  O         0.0066530836        3.8964686157       16.4190570122
  O        -1.6858100253        6.8130296135       16.4237607753
  O         5.0510113100        0.9774901228       16.4190270141
  O         3.3716570498        3.8930987377       16.4699093186
  O         1.6862365876        6.8055917227       16.4190566258
  O         8.4289358652        0.9732794450       16.4219875165
  O         6.7363268034        3.8965398386       16.4190289886
  O         5.0569542302        6.8054141036       16.4189485153
  O         0.0002962863        1.9467312657       25.1487637524
  O        -1.6857698337        4.8663169932       25.1490219412
  O        -3.3716526039        7.7863514750       25.1490230514
  O         3.3715800642        1.9466876383       25.1489785685
  O         1.6858992391        4.8663720211       25.1489806384
  O         0.0001119562        7.7863503933       25.1490221336
  O         6.7428712414        1.9467295356       25.1487570799
  O         5.0572622473        4.8663721413       25.1489791462
  O         3.3715813125        7.7859669833       25.1487635762
  O         0.0012377177       -0.0007143789       18.5897406703
  O        -1.6858015445        2.9212098936       18.5898208632
  O        -3.3677628973        5.8419170632       18.5945778792
  O         3.3715738127       -0.0043884652       18.5945792466
  O         1.6806085392        2.9168599601       18.5987573640
  O        -0.0037896089        5.8419157123       18.5945790084
  O         6.7419601090       -0.0006597925       18.5898197325
  O         5.0625659157        2.9168542999       18.5988082377
  O         3.3715820897        5.8457104221       18.5987576064
  O         1.6859598253        0.9736636186        1.1444941808
  O         0.0004252379        3.8930975195        1.1445025335
  O        -1.6857790117        6.8130121949        1.1441183422
  O         5.0572000356        0.9736689678        1.1444883128
  O         3.3715820587        3.8931442560        1.1445046707
  O         1.6860425573        6.8126745480        1.1445005739
  O         8.4289328912        0.9732807326        1.1439191515
  O         6.7427307934        3.8930930815        1.1444891202
  O         5.0571144804        6.8126747958        1.1444927168
  O        -0.0000667326        1.9464909387        9.8688180361
  O        -1.6858006408        4.8666738890        9.8683747017
  O        -3.3713134545        7.7861566151        9.8684209597
  O         3.3715836432        2.0109100812        9.8769467366
  O         1.7414522407        4.8343003484        9.8763059935
  O        -0.0002115564        7.7861990317        9.8683731655
  O         6.7431913325        1.9465433484        9.8687740279
  O         5.0016400958        4.8342606907        9.8769399409
  O         3.3716078473        7.7864042534        9.8688176257
  O         0.0002900509       -0.0001678567       22.5832229979
  O        -1.6857645029        2.9201758178       22.5832204499
  O        -3.3717039602        5.8396392852       22.5835389116
  O         3.3715759459        0.0001611725       22.5835386559
  O         1.6860130286        2.9199858063       22.5833021585
  O         0.0001579303        5.8396352906       22.5835368554
  O         6.7428730469       -0.0001723893       22.5832208403
  O         5.0571314222        2.9199906216       22.5833112526
  O         3.3715756013        5.8394684894       22.5833013332
  O         1.6863446629        0.9711456231        5.1323620537
  O        -0.0015681322        3.8946797349        5.1323160317
  O        -1.6858824117        6.8130709580        5.1407268355
  O         5.0567701141        0.9711870195        5.1324148264
  O         3.3715711853        3.8931501252        5.1381083461
  O         1.6836729266        6.8136098034        5.1323160204
  O         8.4289299399        0.9732821079        5.1350428986
  O         6.7446645979        3.8947053208        5.1324153965
  O         5.0594865598        6.8135999180        5.1323631294
  O         0.0007252935        1.9469480700       13.8608672694
  O        -1.6858535697        4.8652587593       13.8650714224
  O        -3.3727099387        7.7869621119       13.8650247082
  O         3.3716120136        2.0066283189       13.8368977241
  O         1.7376653324        4.8364841177       13.8380596985
  O         0.0009867757        7.7869524648       13.8650715599
  O         6.7424438783        1.9469748759       13.8608609588
  O         5.0053646683        4.8363738287       13.8369100756
  O         3.3716048910        7.7854899270       13.8608670358
     188
 i =        8, E =     -6889.2253787359
 Zn         0.0002315765       -0.0001342182        5.7000838417
 Zn        -1.6857616308        2.9201191797        5.7001131136
 Zn        -3.3724343222        5.8392315960        5.7011246868
 Zn         3.3715644718        0.0009976960        5.7011243700
 Zn         1.6820193367        2.9176807519        5.6885973177
 Zn         0.0008367339        5.8392426510        5.7010978677
 Zn         6.7429265653       -0.0001467397        5.7001126794
 Zn         5.0610836636        2.9177091826        5.6886497244
 Zn         3.3715739196        5.8440803803        5.6885962331
 Zn         1.6867110080        0.9773375769       14.4119028228
 Zn         0.0041878997        3.8921490749       14.4116305872
 Zn        -1.6857315943        6.8129834032       14.4199669194
 Zn         5.0564554454        0.9772190487       14.4119346020
 Zn         3.3716567790        3.8930965994       14.5090822274
 Zn         1.6887466342        6.8098876310       14.4116303896
 Zn         8.4289270020        0.9732844625       14.4176042610
 Zn         6.7392793904        3.8919652083       14.4119311722
 Zn         5.0543061264        6.8101826655       14.4118983459
 Zn        -0.0010288253        1.9459712509       23.1463751038
 Zn        -1.6857775123        4.8658004936       23.1468070381
 Zn        -3.3721143360        7.7866184696       23.1468143462
 Zn         3.3715693665        1.9460749049       23.1476365612
 Zn         1.6853588939        4.8666840237       23.1476296963
 Zn         0.0005558864        7.7866150714       23.1468078985
 Zn         6.7441806441        1.9459732004       23.1463647273
 Zn         5.0577868662        4.8666889286       23.1476371815
 Zn         3.3715768660        7.7874966601       23.1463738203
 In        -0.0001128419        0.0000646358        0.0524883306
 In        -1.6857770934        2.9197185378        0.0524843199
 In        -3.3712745431        5.8398863918        0.0528642543
 In         3.3715766005       -0.0003329098        0.0528637156
 In         1.6857510908        2.9198353613        0.0523513635
 In        -0.0002812613        5.8398890979        0.0528659345
 In         6.7432654989        0.0000670943        0.0524831507
 In         5.0574038701        2.9198336532        0.0523349275
 In         3.3715750425        5.8397691465        0.0523507233
 In         1.6837880882        0.9754070814        8.7900858001
 In         0.0010452628        3.8906182099        8.7903655802
 In        -1.6857506221        6.8129951218        8.7749445294
 In         5.0592730309        0.9753145408        8.7900938003
 In         3.3713859296        3.8932572027        8.6894655355
 In         1.6885018185        6.8133765042        8.7903651026
 In         8.4289397608        0.9732774929        8.7708538953
 In         6.7423369024        3.8904764153        8.7901007666
 In         5.0545168308        6.8136824478        8.7900865048
 In        -0.0000260218        1.9465923154       17.4954368863
 In        -1.6857544852        4.8651125628       17.4926296267
 In        -3.3726430750        7.7869234265       17.4925901416
 In         3.3716050133        1.9398954387       17.5276717593
 In         1.6799681197        4.8697986529       17.5273197079
 In         0.0011618851        7.7869396975       17.4926301761
 In         6.7431809148        1.9465480770       17.4954852020
 In         5.0631568772        4.8697477707       17.5276686543
 In         3.3715416358        7.7863166163       17.4954355907
 Ga        -0.0001244532        0.0000719167       20.5747982921
 Ga        -1.6857945131        2.9197276221       20.5748063053
 Ga        -3.3706280989        5.8402785005       20.5775537105
 Ga         3.3715600823       -0.0010894866       20.5775544929
 Ga         1.6844960181        2.9191371230       20.5791742690
 Ga        -0.0009515770        5.8402771070       20.5775364552
 Ga         6.7432476409        0.0000768072       20.5748070422
 Ga         5.0586242303        2.9191292238       20.5792076477
 Ga         3.3715535277        5.8412070090       20.5791736505
 Ga         1.6857931381        0.9726125344        3.1264853452
 Ga        -0.0005871305        3.8934998242        3.1264857932
 Ga        -1.6857955103        6.8130219341        3.1279773283
 Ga         5.0573405320        0.9726171154        3.1264868397
 Ga         3.3715647631        3.8931543852        3.1266489069
 Ga         1.6851871336        6.8133499155        3.1264860338
 Ga         8.4289150471        0.9732913951        3.1274747819
 Ga         6.7437101286        3.8934965902        3.1264868605
 Ga         5.0579418287        6.8133444286        3.1264858696
 Ga         0.0054856871        1.9499698113       11.8523176958
 Ga        -1.6849435176        4.8649935027       11.8522998824
 Ga        -3.3725956597        7.7868826249       11.8522505652
 Ga         3.3713602997        2.0448200145       11.8483824213
 Ga         1.7787260897        4.8127837484       11.8485900132
 Ga         0.0016759333        7.7862861742       11.8522998800
 Ga         6.7377111093        1.9497129760       11.8522831379
 Ga         4.9720416619        4.8174317353       11.8483850221
 Ga         3.3713756240        7.7798529423       11.8523183534
  O        -0.0007592843        0.0004384081        3.1491498828
  O        -1.6858132619        2.9189962797        3.1491547650
  O        -3.3700085599        5.8406168590        3.1494174734
  O         3.3715778721       -0.0017948977        3.1494178771
  O         1.6862942439        2.9201575293        3.1507392897
  O        -0.0016035710        5.8406522390        3.1494142903
  O         6.7438738972        0.0004604624        3.1491547972
  O         5.0568386361        2.9201600356        3.1507588447
  O         3.3715676075        5.8391400988        3.1507384138
  O         1.6981681448        0.9776481332       11.8767560733
  O         0.0123120848        3.9018536492       11.8768314527
  O        -1.6857830199        6.8130143281       11.8770062397
  O         5.0449485493        0.9779113187       11.8767336332
  O         1.6844054624        6.7980045931       11.8768329659
  O         8.4289320476        0.9732835675       11.8761698061
  O         6.7328967985        3.9015902978       11.8767328569
  O         5.0597583400        6.8000823225       11.8767567220
  O        -0.0020482104        1.9453887126       20.5998278799
  O        -1.6858007128        4.8658944564       20.5997250029
  O        -3.3720635165        7.7865886996       20.5997200896
  O         3.3715499062        1.9457299189       20.5972561925
  O         1.6850361843        4.8668714800       20.5972687978
  O         0.0004619963        7.7865894834       20.5997252240
  O         6.7451625194        1.9454061776       20.5998711573
  O         5.0580769341        4.8668790982       20.5972575376
  O         3.3715719860        7.7886720574       20.5998283906
  O         0.0034537765       -0.0019947014        7.7020963317
  O        -1.6857338334        2.9238600365        7.7021802778
  O        -3.3804400292        5.8346743180        7.7104182160
  O         3.3715081545        0.0102110464        7.7104178900
  O         1.6739902870        2.9128575508        7.6909445640
  O         0.0084693150        5.8348367011        7.7102388134
  O         6.7397023594       -0.0020429670        7.7021795213
  O         5.0689496989        2.9131644904        7.6911476773
  O         3.3717338076        5.8534461846        7.6909419843
  O         1.6931464227        0.9780756460       16.4190620653
  O         0.0076583524        3.8969612773       16.4191124932
  O        -1.6858062641        6.8130278392       16.4225827815
  O         5.0500450547        0.9781421498       16.4191234668
  O         3.3717363333        3.8930516032       16.4757391014
  O         1.6863117968        6.8044754490       16.4191116016
  O         8.4289269909        0.9732847233       16.4216073898
  O         6.7352795635        3.8970498531       16.4191251188
  O         5.0568864917        6.8042463231       16.4190614670
  O         0.0004339279        1.9468077617       25.1488459836
  O        -1.6857681389        4.8662738777       25.1491316492
  O        -3.3716883098        7.7863725176       25.1491315041
  O         3.3715817039        1.9467483905       25.1491087085
  O         1.6859542496        4.8663399387       25.1491110895
  O         0.0001493388        7.7863713196       25.1491318652
  O         6.7427370439        1.9468074561       25.1488375061
  O         5.0572096260        4.8663396497       25.1491091374
  O         3.3715837170        7.7858102415       25.1488451411
  O         0.0013146123       -0.0007594372       18.5890423515
  O        -1.6858084408        2.9212939165       18.5891447998
  O        -3.3669249727        5.8423932677       18.5946873691
  O         3.3715807823       -0.0053517569       18.5946886822
  O         1.6797422790        2.9163733688       18.6002668021
  O        -0.0046127865        5.8423913087       18.5946883488
  O         6.7418831743       -0.0006961516       18.5891431244
  O         5.0634506045        2.9163437426       18.6003380096
  O         3.3715706102        5.8467025723       18.6002668937
  O         1.6859892976        0.9736772387        1.1447543462
  O         0.0004530168        3.8931132610        1.1447633244
  O        -1.6857794597        6.8130133481        1.1439864235
  O         5.0571714875        0.9736859974        1.1447478719
  O         3.3715833054        3.8931433099        1.1445040834
  O         1.6860431263        6.8126415377        1.1447615904
  O         8.4289347586        0.9732798517        1.1438950773
  O         6.7427032315        3.8931090906        1.1447488658
  O         5.0571169154        6.8126426012        1.1447532910
  O        -0.0006240816        1.9461235484        9.8680137655
  O        -1.6857842414        4.8663824863        9.8692903027
  O        -3.3715013803        7.7862651042        9.8692591969
  O         3.3716102776        2.0144175659        9.8774738291
  O         1.7449524682        4.8322783848        9.8764255428
  O         0.0000482776        7.7863296760        9.8692875576
  O         6.7436933250        1.9462531984        9.8679857388
  O         4.9986104223        4.8324819079        9.8774611482
  O         3.3716468317        7.7870719794        9.8680127847
  O         0.0004019434       -0.0002322536       22.5836000121
  O        -1.6857626408        2.9203040608       22.5836002457
  O        -3.3717740874        5.8395984757       22.5836964157
  O         3.3715765939        0.0002423464       22.5836959503
  O         1.6861295460        2.9200504760       22.5832769980
  O         0.0002264258        5.8395952960       22.5836949101
  O         6.7427628915       -0.0002377403       22.5836009722
  O         5.0570149846        2.9200580149       22.5832909299
  O         3.3715776311        5.8393346740       22.5832760008
  O         1.6864887986        0.9711957249        5.1323672982
  O        -0.0014489367        3.8947787591        5.1323187081
  O        -1.6858802482        6.8130696154        5.1417460994
  O         5.0566320215        0.9712472542        5.1324393126
  O         3.3715660829        3.8931532502        5.1390234709
  O         1.6836462651        6.8134573336        5.1323186088
  O         8.4289270607        0.9732839003        5.1358387967
  O         6.7445433677        3.8947951250        5.1324403245
  O         5.0595150170        6.8134500887        5.1323684157
  O         0.0009092065        1.9470176426       13.8628519684
  O        -1.6858211858        4.8647654405       13.8647444183
  O        -3.3730686186        7.7871685525       13.8647687581
  O         3.3716439815        2.0096972967       13.8364842102
  O         1.7407205424        4.8347194747       13.8382096110
  O         0.0014297507        7.7871704098       13.8647452549
  O         6.7422298372        1.9470981480       13.8627942640
  O         5.0027185376        4.8348078137       13.8365064083
  O         3.3716360555        7.7852970342       13.8628519997
     188
 i =        9, E =     -6889.2254461271
 Zn         0.0001256167       -0.0000727920        5.6994747788
 Zn        -1.6857666058        2.9199962796        5.6994965588
 Zn        -3.3725090181        5.8391876100        5.7005764544
 Zn         3.3715649125        0.0010843872        5.7005761350
 Zn         1.6820781659        2.9177161598        5.6890662236
 Zn         0.0009101694        5.8392003452        5.7005390449
 Zn         6.7430302430       -0.0000810334        5.6994961736
 Zn         5.0610345700        2.9177376095        5.6891113262
 Zn         3.3715731438        5.8440112372        5.6890655124
 Zn         1.6864499859        0.9768969110       14.4124344435
 Zn         0.0035676919        3.8920861984       14.4122814337
 Zn        -1.6857527353        6.8129958513       14.4208232097
 Zn         5.0567193138        0.9768010232       14.4124700730
 Zn         3.3715656787        3.8931504795       14.5015190425
 Zn         1.6884904852        6.8104563698       14.4122813644
 Zn         8.4289298983        0.9732826584       14.4180245613
 Zn         6.7397744752        3.8919446893       14.4124680015
 Zn         5.0545578410        6.8106308460       14.4124311771
 Zn        -0.0007144414        1.9461550328       23.1463972360
 Zn        -1.6857768728        4.8659924995       23.1467401629
 Zn        -3.3719481538        7.7865223515       23.1467481827
 Zn         3.3715692175        1.9462546258       23.1472952194
 Zn         1.6855133423        4.8665949456       23.1472897985
 Zn         0.0003897611        7.7865188623       23.1467411381
 Zn         6.7438643913        1.9461556246       23.1463879784
 Zn         5.0576309596        4.8665990484       23.1472958097
 Zn         3.3715748909        7.7871325404       23.1463964923
 In        -0.0001169108        0.0000670343        0.0526553282
 In        -1.6857779129        2.9197165270        0.0526529354
 In        -3.3713101562        5.8398666514        0.0529185657
 In         3.3715758093       -0.0002924020        0.0529176853
 In         1.6857649227        2.9198452236        0.0523684942
 In        -0.0002471288        5.8398693037        0.0529202424
 In         6.7432669770        0.0000687914        0.0526514618
 In         5.0573875372        2.9198428393        0.0523549275
 In         3.3715737557        5.8397524373        0.0523682418
 In         1.6836639009        0.9749348722        8.7884579454
 In         0.0005059764        3.8906985581        8.7885841035
 In        -1.6857568945        6.8129990007        8.7762909631
 In         5.0594099208        0.9748649923        8.7884525540
 In         3.3713870226        3.8932563732        8.6943247385
 In         1.6881622484        6.8138036610        8.7885837289
 In         8.4289388756        0.9732778909        8.7734296105
 In         6.7427957389        3.8905819805        8.7884573514
 In         5.0548641092        6.8140267095        8.7884577471
 In         0.0000783501        1.9466421253       17.4967405389
 In        -1.6857637371        4.8653519266       17.4944303058
 In        -3.3724459556        7.7868095737       17.4944087180
 In         3.3716025690        1.9403933496       17.5234219059
 In         1.6804057771        4.8695455842       17.5231485182
 In         0.0009499424        7.7868282735       17.4944302742
 In         6.7430751541        1.9466095874       17.4967755217
 In         5.0627240514        4.8695008063       17.5234200698
 In         3.3715504047        7.7862017064       17.4967394684
 Ga        -0.0000885194        0.0000512290       20.5750385498
 Ga        -1.6857942389        2.9197706581       20.5750410039
 Ga        -3.3708181003        5.8401685845       20.5772984167
 Ga         3.3715607903       -0.0008696598       20.5772993007
 Ga         1.6847173174        2.9192632015       20.5784636927
 Ga        -0.0007629485        5.8401679138       20.5772814870
 Ga         6.7432108295        0.0000555827       20.5750418388
 Ga         5.0584023700        2.9192572657       20.5784904927
 Ga         3.3715549042        5.8409516417       20.5784631919
 Ga         1.6857783298        0.9725903766        3.1261350967
 Ga        -0.0006143797        3.8934985252        3.1261371438
 Ga        -1.6857951949        6.8130217832        3.1277315952
 Ga         5.0573557639        0.9725933947        3.1261370812
 Ga         3.3715649426        3.8931539597        3.1263563616
 Ga         1.6851749451        6.8133740604        3.1261372046
 Ga         8.4289153174        0.9732911993        3.1270297444
 Ga         6.7437386505        3.8934954411        3.1261370363
 Ga         5.0579532606        6.8133686143        3.1261353828
 Ga         0.0050260299        1.9495235965       11.8523985026
 Ga        -1.6852859696        4.8658061191       11.8526926953
 Ga        -3.3719869957        7.7865367389       11.8526556853
 Ga         3.3715757497        2.0345218583       11.8475574241
 Ga         1.7660899838        4.8200770828       11.8477462687
 Ga         0.0007997536        7.7861814569       11.8526932176
 Ga         6.7382085490        1.9494231179       11.8523789135
 Ga         4.9811232424        4.8224234789       11.8475591792
 Ga         3.3715298977        7.7804754085       11.8523989857
  O        -0.0005401243        0.0003120464        3.1493505729
  O        -1.6858097736        2.9192472049        3.1493545120
  O        -3.3703842697        5.8404035041        3.1497551164
  O         3.3715749244       -0.0013627781        3.1497555995
  O         1.6861480380        2.9200743610        3.1509947813
  O        -0.0012263421        5.8404345068        3.1497561285
  O         6.7436579879        0.0003318461        3.1493541878
  O         5.0569834145        2.9200766695        3.1510128424
  O         3.3715666863        5.8393078927        3.1509945423
  O         1.6976644359        0.9759469921       11.8764514374
  O         0.0094774255        3.9018914620       11.8765032981
  O        -1.6857746019        6.8130095361       11.8764561126
  O         5.0456504588        0.9761703928       11.8764210493
  O         1.6829542888        6.8004390169       11.8765038648
  O         8.4289469205        0.9732748830       11.8757267724
  O         6.7347713515        3.9018474887       11.8764207273
  O         5.0609835641        6.8013830875       11.8764526666
  O        -0.0015867634        1.9456574620       20.5997212315
  O        -1.6858002836        4.8660142247       20.5996946422
  O        -3.3719597887        7.7865292296       20.5996871911
  O         3.3715498211        1.9459803066       20.5976555358
  O         1.6852524843        4.8667463335       20.5976604429
  O         0.0003588801        7.7865290403       20.5996949994
  O         6.7447010401        1.9456730257       20.5997598277
  O         5.0578602022        4.8667538320       20.5976566241
  O         3.3715700811        7.7881376041       20.5997219322
  O         0.0020676094       -0.0011943842        7.7018350912
  O        -1.6857570747        2.9222500481        7.7018934342
  O        -3.3802082254        5.8348106519        7.7095953324
  O         3.3715056178        0.0099415489        7.7095948674
  O         1.6747058782        2.9133120286        7.6914873212
  O         0.0082588588        5.8349581033        7.7094071846
  O         6.7410846027       -0.0012174836        7.7018925420
  O         5.0682691752        2.9135576808        7.6916629748
  O         3.3716988127        5.8525984485        7.6914854917
  O         1.6921240646        0.9773561124       16.4188999932
  O         0.0065521459        3.8964579651       16.4189887287
  O        -1.6858112550        6.8130303563       16.4235342078
  O         5.0510588674        0.9774158262       16.4189711392
  O         3.3716907789        3.8930786063       16.4695242753
  O         1.6861948644        6.8056847742       16.4189880607
  O         8.4289303981        0.9732825583       16.4220535714
  O         6.7364149863        3.8965359241       16.4189726515
  O         5.0569983889        6.8054908772       16.4188996742
  O         0.0002580034        1.9467088867       25.1487981276
  O        -1.6857690658        4.8662777113       25.1490581844
  O        -3.3716866379        7.7863714014       25.1490589669
  O         3.3715802363        1.9466226005       25.1489927848
  O         1.6858427176        4.8664046124       25.1489943855
  O         0.0001460358        7.7863697445       25.1490584442
  O         6.7429098202        1.9467075236       25.1487913713
  O         5.0573182233        4.8664041912       25.1489932113
  O         3.3715813846        7.7860117314       25.1487977038
  O         0.0012282296       -0.0007088636       18.5897904304
  O        -1.6858041388        2.9212017657       18.5898751523
  O        -3.3677666970        5.8419084826       18.5945842945
  O         3.3715794765       -0.0043808495       18.5945856610
  O         1.6806627845        2.9168972386       18.5986933659
  O        -0.0037765577        5.8419083771       18.5945812110
  O         6.7419654988       -0.0006536410       18.5898737577
  O         5.0625203810        2.9168806005       18.5987548000
  O         3.3715772829        5.8456442865       18.5986933099
  O         1.6859553634        0.9736151472        1.1444806959
  O         0.0003813548        3.8931173782        1.1444892854
  O        -1.6857787283        6.8130124749        1.1440966411
  O         5.0572041033        0.9736214173        1.1444755150
  O         3.3715824187        3.8931439533        1.1444313484
  O         1.6860034600        6.8127020684        1.1444876406
  O         8.4289333167        0.9732806186        1.1438816363
  O         6.7427744585        3.8931129513        1.1444763946
  O         5.0571540558        6.8127028305        1.1444795473
  O        -0.0001912250        1.9464006908        9.8688306557
  O        -1.6857861603        4.8664350166        9.8685409064
  O        -3.3714846539        7.7862552449        9.8685567949
  O         3.3715947070        2.0111530649        9.8771634686
  O         1.7418253742        4.8340844643        9.8763549984
  O         0.0000019694        7.7863058345        9.8685392893
  O         6.7432979553        1.9464816344        9.8688053161
  O         5.0014332407        4.8341281721        9.8771542517
  O         3.3716236057        7.7865577755        9.8688298760
  O         0.0002944624       -0.0001703132       22.5833199017
  O        -1.6857644837        2.9201810670       22.5833184150
  O        -3.3717236370        5.8396279901       22.5835496198
  O         3.3715759513        0.0001838197       22.5835493903
  O         1.6860227664        2.9199906199       22.5832443199
  O         0.0001769142        5.8396241998       22.5835465299
  O         6.7428686546       -0.0001749767       22.5833189623
  O         5.0571216615        2.9199963466       22.5832556673
  O         3.3715761664        5.8394574181       22.5832433934
  O         1.6863500855        0.9712173124        5.1323139342
  O        -0.0015017665        3.8946474969        5.1322705555
  O        -1.6858790191        6.8130689779        5.1406101240
  O         5.0567692881        0.9712630375        5.1323748948
  O         3.3715722603        3.8931494784        5.1380205123
  O         1.6837340678        6.8135684115        5.1322704469
  O         8.4289273471        0.9732836197        5.1350724976
  O         6.7445984317        3.8946680395        5.1323754422
  O         5.0594271895        6.8135594668        5.1323149601
  O         0.0007010512        1.9469216344       13.8612651854
  O        -1.6858337267        4.8651555059       13.8649760068
  O        -3.3727712801        7.7869972185       13.8649559252
  O         3.3716200280        2.0066340241       13.8375594956
  O         1.7378251169        4.8363914410       13.8389419464
  O         0.0010857270        7.7869865417       13.8649768383
  O         6.7424500956        1.9469709248       13.8612308176
  O         5.0053617551        4.8363623654       13.8375756332
  O         3.3716153932        7.7855247273       13.8612652927
     188
 i =       10, E =     -6889.2254526298
 Zn         0.0001192272       -0.0000690882        5.6994249447
 Zn        -1.6857648049        2.9199922933        5.6994618167
 Zn        -3.3725295006        5.8391722020        5.7006298779
 Zn         3.3715679194        0.0011098427        5.7006293625
 Zn         1.6820606263        2.9177063153        5.6891622535
 Zn         0.0009343614        5.8391863306        5.7006080001
 Zn         6.7430346455       -0.0000806119        5.6994612043
 Zn         5.0610515700        2.9177277924        5.6891878550
 Zn         3.3715729360        5.8440313250        5.6891617896
 Zn         1.6864629218        0.9769247374       14.4123814987
 Zn         0.0036184162        3.8920556967       14.4122173132
 Zn        -1.6857603369        6.8130002257       14.4207187820
 Zn         5.0567017035        0.9768273343       14.4123819496
 Zn         3.3715556247        3.8931560691       14.5020129734
 Zn         1.6885423233        6.8104275402       14.4122174969
 Zn         8.4289305101        0.9732822795       14.4180639067
 Zn         6.7397423404        3.8919465649       14.4123794357
 Zn         5.0545396761        6.8106051892       14.4123780072
 Zn        -0.0006969372        1.9461647782       23.1464023264
 Zn        -1.6857759650        4.8659976665       23.1467342842
 Zn        -3.3719441464        7.7865200270       23.1467422066
 Zn         3.3715684758        1.9462525051       23.1472865753
 Zn         1.6855114672        4.8665960254       23.1472796564
 Zn         0.0003856826        7.7865155918       23.1467353265
 Zn         6.7438479996        1.9461649693       23.1463936518
 Zn         5.0576323345        4.8666007523       23.1472870712
 Zn         3.3715751928        7.7871125545       23.1464017339
 In        -0.0001230234        0.0000705892        0.0527180181
 In        -1.6857782865        2.9197102479        0.0527164420
 In        -3.3713046033        5.8398689472        0.0529716475
 In         3.3715765128       -0.0002982554        0.0529707585
 In         1.6857581905        2.9198418098        0.0524380730
 In        -0.0002521971        5.8398721951        0.0529734236
 In         6.7432722427        0.0000723370        0.0527148304
 In         5.0573944687        2.9198387843        0.0524257305
 In         3.3715733186        5.8397599967        0.0524378568
 In         1.6836398375        0.9749402042        8.7885587134
 In         0.0005108629        3.8906318760        8.7886951952
 In        -1.6857582483        6.8129997647        8.7767038545
 In         5.0594489003        0.9748727844        8.7885920346
 In         3.3714178684        3.8932382347        8.6946107341
 In         1.6882223832        6.8138325552        8.7886945180
 In         8.4289306015        0.9732827218        8.7735947365
 In         6.7428081065        3.8905440751        8.7885973179
 In         5.0548470512        6.8140445851        8.7885587101
 In         0.0000893086        1.9466482449       17.4967874584
 In        -1.6857615867        4.8653790103       17.4945344822
 In        -3.3724220338        7.7867956922       17.4945214171
 In         3.3716044348        1.9402988760       17.5231710234
 In         1.6803297645        4.8695893168       17.5228668885
 In         0.0009274651        7.7868129878       17.4945344695
 In         6.7430642935        1.9466159283       17.4968244394
 In         5.0628068033        4.8695464135       17.5231684966
 In         3.3715506006        7.7861892085       17.4967861596
 Ga        -0.0000794656        0.0000460158       20.5750269367
 Ga        -1.6857938511        2.9197822602       20.5750311989
 Ga        -3.3708503445        5.8401495411       20.5772737222
 Ga         3.3715614689       -0.0008320875       20.5772746972
 Ga         1.6847200107        2.9192664815       20.5784012645
 Ga        -0.0007292360        5.8401483025       20.5772528911
 Ga         6.7432010924        0.0000497114       20.5750319673
 Ga         5.0583998492        2.9192587009       20.5784330686
 Ga         3.3715533544        5.8409472958       20.5784006848
 Ga         1.6857856567        0.9725851384        3.1260620438
 Ga        -0.0006160660        3.8935080417        3.1260663567
 Ga        -1.6857941844        6.8130211751        3.1276944950
 Ga         5.0573494107        0.9725881246        3.1260671784
 Ga         3.3715649065        3.8931538515        3.1262762069
 Ga         1.6851660093        6.8133706495        3.1260663136
 Ga         8.4289141764        0.9732917811        3.1269624045
 Ga         6.7437403377        3.8935036069        3.1260670822
 Ga         5.0579614121        6.8133650300        3.1260621781
 Ga         0.0050182787        1.9495119197       11.8524502469
 Ga        -1.6854291815        4.8658144444       11.8527084986
 Ga        -3.3719622509        7.7865230922       11.8526682689
 Ga         3.3715433468        2.0365444831       11.8474674089
 Ga         1.7669016407        4.8196085093       11.8476989851
 Ga         0.0007202273        7.7863016325       11.8527090109
 Ga         6.7382044004        1.9494255481       11.8524237764
 Ga         4.9793582053        4.8214414634       11.8474696883
 Ga         3.3715362238        7.7804877701       11.8524508523
  O        -0.0005328134        0.0003079223        3.1494270853
  O        -1.6858095899        2.9192566075        3.1494312704
  O        -3.3703968357        5.8403953065        3.1498506891
  O         3.3715757797       -0.0013478273        3.1498512907
  O         1.6861539574        2.9200781403        3.1510684152
  O        -0.0012128637        5.8404267437        3.1498498337
  O         6.7436497496        0.0003269489        3.1494307176
  O         5.0569772758        2.9200803871        3.1510884198
  O         3.3715665012        5.8393007129        3.1510684189
  O         1.6980141342        0.9764495025       11.8765153127
  O         0.0097929687        3.9018248512       11.8765565655
  O        -1.6857409973        6.8129896393       11.8765008631
  O         5.0452881229        0.9767371184       11.8764920520
  O         1.6831690753        6.8001991683       11.8765569140
  O         8.4289431287        0.9732770581       11.8758838936
  O         6.7341007214        3.9018766700       11.8764917630
  O         5.0607231778        6.8008306418       11.8765166032
  O        -0.0015920437        1.9456547422       20.5997522265
  O        -1.6857996989        4.8660253689       20.5997309730
  O        -3.3719502652        7.7865239242       20.5997225617
  O         3.3715493365        1.9459912060       20.5976891048
  O         1.6852615026        4.8667409910       20.5976983506
  O         0.0003497016        7.7865228070       20.5997315159
  O         6.7447077287        1.9456693297       20.5997923424
  O         5.0578506619        4.8667487016       20.5976900737
  O         3.3715698146        7.7881433228       20.5997529858
  O         0.0019611108       -0.0011329761        7.7017968150
  O        -1.6857530798        2.9221386863        7.7018681414
  O        -3.3802085227        5.8347909387        7.7097118863
  O         3.3715223857        0.0099515471        7.7097111800
  O         1.6746741193        2.9132773062        7.6915164005
  O         0.0082900094        5.8349399455        7.7095477437
  O         6.7411831841       -0.0011653361        7.7018669649
  O         5.0683475708        2.9135119872        7.6916789867
  O         3.3717126501        5.8526431265        7.6915146732
  O         1.6920549031        0.9772772634       16.4188520094
  O         0.0064489105        3.8964371525       16.4189575842
  O        -1.6858084161        6.8130285867       16.4235352661
  O         5.0511285627        0.9773324051       16.4189079665
  O         3.3717027913        3.8930713388       16.4695917655
  O         1.6861613163        6.8057844490       16.4189570252
  O         8.4289290428        0.9732833493       16.4221885118
  O         6.7365223284        3.8965173590       16.4189095525
  O         5.0570321544        6.8055903396       16.4188519389
  O         0.0002429577        1.9467000988       25.1488138999
  O        -1.6857691100        4.8662672099       25.1490686403
  O        -3.3716959410        7.7863765757       25.1490694142
  O         3.3715798658        1.9465972702       25.1489911408
  O         1.6858206942        4.8664173753       25.1489918836
  O         0.0001553934        7.7863749621       25.1490689542
  O         6.7429251053        1.9466986782       25.1488074304
  O         5.0573402921        4.8664173894       25.1489915585
  O         3.3715813700        7.7860290708       25.1488136616
  O         0.0012378013       -0.0007143954       18.5898465113
  O        -1.6858029056        2.9212186808       18.5899321148
  O        -3.3677655708        5.8419044649       18.5945895491
  O         3.3715831653       -0.0043799604       18.5945910428
  O         1.6807181631        2.9169384710       18.5985501358
  O        -0.0037661495        5.8419023912       18.5945805950
  O         6.7419516089       -0.0006633593       18.5899307008
  O         5.0624679338        2.9169111264       18.5986191833
  O         3.3715694468        5.8455757419       18.5985498427
  O         1.6859485823        0.9736004007        1.1444435806
  O         0.0003655030        3.8931183640        1.1444525625
  O        -1.6857792285        6.8130126194        1.1440959389
  O         5.0572110098        0.9736067793        1.1444408823
  O         3.3715823794        3.8931440666        1.1443869120
  O         1.6859944893        6.8127155876        1.1444508500
  O         8.4289329833        0.9732806927        1.1438522888
  O         6.7427901901        3.8931144510        1.1444416702
  O         5.0571635649        6.8127159080        1.1444422095
  O        -0.0002476377        1.9463493716        9.8688442857
  O        -1.6857327091        4.8663714650        9.8685802739
  O        -3.3715396287        7.7862862635        9.8685798093
  O         3.3715853169        2.0111168273        9.8770107649
  O         1.7417327987        4.8341377469        9.8762172815
  O         0.0000839033        7.7862908566        9.8685785032
  O         6.7433709337        1.9464392089        9.8688214752
  O         5.0014599641        4.8341541668        9.8770008132
  O         3.3716395304        7.7866323243        9.8688434118
  O         0.0002854879       -0.0001651549       22.5833625178
  O        -1.6857644643        2.9201709834       22.5833625764
  O        -3.3717200244        5.8396299386       22.5835513846
  O         3.3715759971        0.0001797318       22.5835510989
  O         1.6860276168        2.9199928779       22.5831994045
  O         0.0001730151        5.8396265430       22.5835468785
  O         6.7428774242       -0.0001701099       22.5833631396
  O         5.0571168777        2.9199990733       22.5832130562
  O         3.3715765894        5.8394522333       22.5831985033
  O         1.6863558558        0.9712045576        5.1322377073
  O        -0.0015100254        3.8946567085        5.1321982378
  O        -1.6858761172        6.8130673559        5.1405695544
  O         5.0567690094        0.9712507891        5.1323036016
  O         3.3715716952        3.8931497896        5.1379222723
  O         1.6837219356        6.8135708975        5.1321979826
  O         8.4289233519        0.9732859878        5.1350609714
  O         6.7446088728        3.8946743377        5.1323041091
  O         5.0594411599        6.8135608646        5.1322385929
  O         0.0006518695        1.9468626973       13.8613539235
  O        -1.6857987491        4.8651141600       13.8648319664
  O        -3.3728066557        7.7870172029       13.8648210608
  O         3.3716118061        2.0066829880       13.8379504791
  O         1.7378504160        4.8363765834       13.8394312870
  O         0.0011390286        7.7869765222       13.8648330359
  O         6.7425058551        1.9469382858       13.8613045971
  O         5.0053148108        4.8363444624       13.8379690030
  O         3.3716414556        7.7855970202       13.8613542472
     188
 i =       11, E =     -6889.2254554638
 Zn         0.0001118782       -0.0000648491        5.6992607135
 Zn        -1.6857648140        2.9199930593        5.6993351081
 Zn        -3.3725811300        5.8391283699        5.7007933615
 Zn         3.3715798165        0.0011763068        5.7007922255
 Zn         1.6819875710        2.9176666878        5.6893874691
 Zn         0.0010008332        5.8391479249        5.7008077923
 Zn         6.7430339808       -0.0000811360        5.6993338145
 Zn         5.0611357220        2.9176793551        5.6893989515
 Zn         3.3715710137        5.8441142228        5.6893872380
 Zn         1.6866077451        0.9770663178       14.4119735369
 Zn         0.0037500411        3.8920084166       14.4118981214
 Zn        -1.6857727027        6.8130071027       14.4203241310
 Zn         5.0565352866        0.9770440272       14.4119057032
 Zn         3.3714378522        3.8932242662       14.5036389432
 Zn         1.6886486503        6.8103370241       14.4118988188
 Zn         8.4289400559        0.9732763876       14.4182603965
 Zn         6.7394706649        3.8919814212       14.4119029133
 Zn         5.0544886638        6.8104083371       14.4119697283
 Zn        -0.0006125208        1.9462119172       23.1464099046
 Zn        -1.6857728269        4.8660441407       23.1467184085
 Zn        -3.3719059288        7.7864978191       23.1467272138
 Zn         3.3715657701        1.9463079878       23.1472209496
 Zn         1.6855595300        4.8665683416       23.1472064590
 Zn         0.0003469280        7.7864897242       23.1467194866
 Zn         6.7437679212        1.9462110121       23.1464039368
 Zn         5.0575828045        4.8665753784       23.1472212059
 Zn         3.3715765777        7.7870158223       23.1464093878
 In        -0.0001304908        0.0000748055        0.0527299327
 In        -1.6857778967        2.9197026757        0.0527332855
 In        -3.3712973286        5.8398729404        0.0529492583
 In         3.3715766011       -0.0003067991        0.0529484357
 In         1.6857662460        2.9198478612        0.0524416430
 In        -0.0002584739        5.8398759663        0.0529529173
 In         6.7432790560        0.0000757440        0.0527313303
 In         5.0573853401        2.9198443197        0.0524330475
 In         3.3715723523        5.8397501463        0.0524416856
 In         1.6836214383        0.9749297495        8.7887658671
 In         0.0004859651        3.8905188071        8.7888141107
 In        -1.6857068544        6.8129692854        8.7780750168
 In         5.0595062447        0.9748980515        8.7888780718
 In         3.3714868254        3.8931974301        8.6949646448
 In         1.6883073806        6.8139100984        8.7888127729
 In         8.4289357910        0.9732794635        8.7740358600
 In         6.7428138658        3.8904811550        8.7888839606
 In         5.0548461271        6.8140647424        8.7887659992
 In         0.0001448185        1.9466697646       17.4969955763
 In        -1.6857634875        4.8654178866       17.4949077727
 In        -3.3723870085        7.7867752033       17.4949213647
 In         3.3716172611        1.9400530987       17.5221293928
 In         1.6801399630        4.8696985866       17.5218047559
 In         0.0008926143        7.7867952692       17.4949077467
 In         6.7430044854        1.9466509256       17.4969885577
 In         5.0630260521        4.8696581227       17.5221252254
 In         3.3715597161        7.7861302920       17.4969940056
 Ga        -0.0001175824        0.0000680876       20.5750432162
 Ga        -1.6857926651        2.9197419103       20.5750455838
 Ga        -3.3708821324        5.8401293461       20.5772404230
 Ga         3.3715629143       -0.0007943461       20.5772417895
 Ga         1.6848092497        2.9193235528       20.5781866301
 Ga        -0.0006916357        5.8401267449       20.5772032216
 Ga         6.7432370228        0.0000688148       20.5750462710
 Ga         5.0583111417        2.9193103449       20.5782285550
 Ga         3.3715481307        5.8408410232       20.5781856588
 Ga         1.6857858501        0.9725378554        3.1260511043
 Ga        -0.0006581691        3.8935353027        3.1260633851
 Ga        -1.6857892859        6.8130185431        3.1278097878
 Ga         5.0573518139        0.9725350152        3.1260564365
 Ga         3.3715607056        3.8931564499        3.1262968113
 Ga         1.6851211358        6.8133934545        3.1260631361
 Ga         8.4289112860        0.9732936480        3.1269157307
 Ga         6.7437872345        3.8935282899        3.1260564671
 Ga         5.0580023692        6.8133882616        3.1260511222
 Ga         0.0051030932        1.9494200471       11.8528995253
 Ga        -1.6858486386        4.8659862031       11.8531686320
 Ga        -3.3719768632        7.7865345672       11.8531264324
 Ga         3.3715441404        2.0436500963       11.8474547059
 Ga         1.7690638611        4.8183595577       11.8477395080
 Ga         0.0003617680        7.7865821529       11.8531692086
 Ga         6.7380334881        1.9495221052       11.8529027345
 Ga         4.9732404530        4.8179064366       11.8474582307
 Ga         3.3716565063        7.7804616701       11.8529001135
  O        -0.0005151207        0.0002976063        3.1493515865
  O        -1.6858058126        2.9192797691        3.1493486456
  O        -3.3704758684        5.8403495361        3.1498071600
  O         3.3715758477       -0.0012560982        3.1498075199
  O         1.6861353446        2.9200684595        3.1510018594
  O        -0.0011296701        5.8403784948        3.1498046829
  O         6.7436319063        0.0003120353        3.1493483143
  O         5.0569928500        2.9200712613        3.1510272951
  O         3.3715653821        5.8393218316        3.1510018773
  O         1.6992852564        0.9782136310       11.8763078641
  O         0.0107896799        3.9016156457       11.8764011872
  O        -1.6857657865        6.8130040055       11.8760374519
  O         5.0440579046        0.9785141034       11.8762642350
  O         1.6838472692        6.7994397248       11.8764013209
  O         8.4288927884        0.9733068547       11.8756359747
  O         6.7319577877        3.9020458189       11.8762650621
  O         5.0598302388        6.7988597615       11.8763108904
  O        -0.0014970210        1.9457104019       20.5998132074
  O        -1.6857974155        4.8659963934       20.5998080097
  O        -3.3719766531        7.7865390770       20.5997916011
  O         3.3715480342        1.9459653612       20.5977693319
  O         1.6852388414        4.8667537524       20.5977986768
  O         0.0003757992        7.7865356096       20.5998084509
  O         6.7446174246        1.9457213663       20.5998574306
  O         5.0578722673        4.8667628990       20.5977706818
  O         3.3715694775        7.7880328137       20.5998143937
  O         0.0016325909       -0.0009437483        7.7016934130
  O        -1.6857444921        2.9217540004        7.7017962368
  O        -3.3801858106        5.8347479519        7.7101144653
  O         3.3715704213        0.0099526038        7.7101134573
  O         1.6745518940        2.9131818233        7.6914818486
  O         0.0083913357        5.8348807241        7.7099780130
  O         6.7415208027       -0.0009807462        7.7017941146
  O         5.0686724517        2.9133230014        7.6916378990
  O         3.3717332211        5.8527950672        7.6914799683
  O         1.6918033409        0.9769402831       16.4185942083
  O         0.0060500001        3.8963795557       16.4187860399
  O        -1.6858053354        6.8130266959       16.4235120757
  O         5.0513756669        0.9769794143       16.4186363044
  O         3.3717021709        3.8930707887       16.4698053243
  O         1.6860115172        6.8061585824       16.4187854913
  O         8.4289342076        0.9732802856       16.4227160972
  O         6.7369519495        3.8964798163       16.4186384362
  O         5.0571982541        6.8059770510       16.4185947516
  O         0.0001935566        1.9466726479       25.1488442122
  O        -1.6857695203        4.8662573771       25.1490990681
  O        -3.3717031886        7.7863810072       25.1490990564
  O         3.3715812455        1.9465116774       25.1489603522
  O         1.6857456548        4.8664607649       25.1489566708
  O         0.0001637001        7.7863802189       25.1490993281
  O         6.7429723187        1.9466715375       25.1488404863
  O         5.0574154301        4.8664592289       25.1489604849
  O         3.3715805053        7.7860851169       25.1488441372
  O         0.0012936452       -0.0007462629       18.5901405970
  O        -1.6858137332        2.9212831346       18.5902165094
  O        -3.3678093991        5.8418744432       18.5946430453
  O         3.3715868768       -0.0043273737       18.5946448924
  O         1.6808274788        2.9169924304       18.5980840029
  O        -0.0037087697        5.8418693829       18.5946156135
  O         6.7418902440       -0.0006861473       18.5902150150
  O         5.0623825262        2.9169605794       18.5981629996
  O         3.3715775439        5.8454537911       18.5980829866
  O         1.6859406623        0.9735662217        1.1444958873
  O         0.0003323520        3.8931273172        1.1445050445
  O        -1.6857798988        6.8130127637        1.1442779984
  O         5.0572188432        0.9735751285        1.1444916488
  O         3.3715837641        3.8931433680        1.1444773747
  O         1.6859699557        6.8127399344        1.1445033769
  O         8.4289320140        0.9732813688        1.1439284081
  O         6.7428213694        3.8931231673        1.1444925303
  O         5.0571892508        6.8127399276        1.1444944296
  O        -0.0004145441        1.9462426751        9.8691278831
  O        -1.6857189588        4.8660348849        9.8690653769
  O        -3.3717803094        7.7864242763        9.8690304390
  O         3.3715309026        2.0110656770        9.8766051470
  O         1.7412798163        4.8343988002        9.8760857481
  O         0.0003813203        7.7864464193        9.8690631875
  O         6.7436192090        1.9462951701        9.8691420923
  O         5.0014790523        4.8342268904        9.8765947679
  O         3.3716479034        7.7868295342        9.8691265406
  O         0.0002596472       -0.0001502241       22.5834926805
  O        -1.6857640100        2.9201415695       22.5834952702
  O        -3.3717311695        5.8396239198       22.5836075248
  O         3.3715754493        0.0001925097       22.5836073224
  O         1.6860178098        2.9199841694       22.5830795672
  O         0.0001822962        5.8396212819       22.5835972598
  O         6.7429032494       -0.0001560383       22.5834959532
  O         5.0571269880        2.9199930895       22.5830971659
  O         3.3715792844        5.8394653255       22.5830785524
  O         1.6863945183        0.9711401550        5.1321894975
  O        -0.0015475480        3.8947162407        5.1321648419
  O        -1.6858628963        6.8130596686        5.1405884548
  O         5.0567450474        0.9711888023        5.1322561333
  O         3.3715809524        3.8931442449        5.1377610295
  O         1.6836517134        6.8135733683        5.1321641562
  O         8.4289142806        0.9732912891        5.1351089553
  O         6.7446506836        3.8947259446        5.1322566609
  O         5.0595164847        6.8135596567        5.1321901375
  O         0.0004107339        1.9466688703       13.8617579615
  O        -1.6857698530        4.8649620169       13.8645455937
  O        -3.3729127535        7.7870776443       13.8645471042
  O         3.3715503021        2.0070766403       13.8397165094
  O         1.7378630510        4.8363686262       13.8411946691
  O         0.0012845573        7.7870265156       13.8645474588
  O         6.7428001252        1.9467671480       13.8617007076
  O         5.0049441568        4.8362005405       13.8397410152
  O         3.3716876673        7.7859027351       13.8617587131
     188
 i =       12, E =     -6889.2254596886
 Zn         0.0001042258       -0.0000603911        5.6993236045
 Zn        -1.6857698877        2.9199782197        5.6993702178
 Zn        -3.3725645079        5.8391422723        5.7007420075
 Zn         3.3715761475        0.0011550639        5.7007411930
 Zn         1.6820051496        2.9176748335        5.6893577448
 Zn         0.0009778468        5.8391611900        5.7007265202
 Zn         6.7430442575       -0.0000692517        5.6993693167
 Zn         5.0611236030        2.9176862506        5.6893726430
 Zn         3.3715726505        5.8440949008        5.6893576325
 Zn         1.6865823324        0.9769954392       14.4121207279
 Zn         0.0036221714        3.8920314197       14.4120804192
 Zn        -1.6857865589        6.8130154970       14.4206087086
 Zn         5.0565641305        0.9769694866       14.4120826019
 Zn         3.3714297539        3.8932296999       14.5024939025
 Zn         1.6885646817        6.8104365658       14.4120811405
 Zn         8.4289334608        0.9732802589       14.4182686081
 Zn         6.7395508012        3.8919934610       14.4120808204
 Zn         5.0545378391        6.8104671546       14.4121179581
 Zn        -0.0006030298        1.9462185801       23.1464037619
 Zn        -1.6857735087        4.8660466865       23.1467186497
 Zn        -3.3719028579        7.7864960508       23.1467274515
 Zn         3.3715666467        1.9463102738       23.1472014163
 Zn         1.6855612116        4.8665673357       23.1471901762
 Zn         0.0003443989        7.7864890242       23.1467197210
 Zn         6.7437569885        1.9462174120       23.1463965031
 Zn         5.0575813021        4.8665734968       23.1472017738
 Zn         3.3715756237        7.7870042281       23.1464031743
 In        -0.0001287454        0.0000738861        0.0527598243
 In        -1.6857781481        2.9197046951        0.0527618265
 In        -3.3713015014        5.8398704685        0.0529901260
 In         3.3715766817       -0.0003018192        0.0529893254
 In         1.6857625428        2.9198455768        0.0524574412
 In        -0.0002545365        5.8398736155        0.0529926046
 In         6.7432771365        0.0000749773        0.0527599513
 In         5.0573892753        2.9198418884        0.0524484765
 In         3.3715723913        5.8397544540        0.0524574255
 In         1.6836440672        0.9749147567        8.7886340877
 In         0.0004356481        3.8905569121        8.7886289286
 In        -1.6857357442        6.8129864283        8.7778059174
 In         5.0594771633        0.9748834358        8.7887085230
 In         3.3714487846        3.8932196680        8.6950313483
 In         1.6882491310        6.8139347564        8.7886278106
 In         8.4289351373        0.9732799166        8.7741588327
 In         6.7428129651        3.8905132440        8.7887130082
 In         5.0548707806        6.8140535903        8.7886331369
 In         0.0001422707        1.9466617537       17.4970607780
 In        -1.6857699299        4.8654191232       17.4949322683
 In        -3.3723899892        7.7867770801       17.4949281234
 In         3.3716096903        1.9401485434       17.5221237553
 In         1.6802184512        4.8696533693       17.5218612590
 In         0.0008884153        7.7868003348       17.4949321590
 In         6.7430117895        1.9466463681       17.4970509154
 In         5.0629394309        4.8696170240       17.5221207930
 In         3.3715652181        7.7861366039       17.4970593361
 Ga        -0.0000803019        0.0000464545       20.5750584597
 Ga        -1.6857947868        2.9197824203       20.5750562858
 Ga        -3.3708978813        5.8401213494       20.5772257642
 Ga         3.3715621325       -0.0007767362       20.5772269260
 Ga         1.6847745524        2.9192982401       20.5781836019
 Ga        -0.0006802332        5.8401200040       20.5771963679
 Ga         6.7432005612        0.0000505271       20.5750570503
 Ga         5.0583471033        2.9192892848       20.5782153789
 Ga         3.3715530892        5.8408840012       20.5781828615
 Ga         1.6857932542        0.9725596023        3.1260034067
 Ga        -0.0006360019        3.8935285387        3.1260120983
 Ga        -1.6857915117        6.8130196343        3.1277281880
 Ga         5.0573434531        0.9725592732        3.1260073056
 Ga         3.3715641005        3.8931543006        3.1262663615
 Ga         1.6851383074        6.8133776459        3.1260119672
 Ga         8.4289124550        0.9732928410        3.1268548109
 Ga         6.7437623241        3.8935232733        3.1260073375
 Ga         5.0579872340        6.8133712153        3.1260035525
 Ga         0.0049994518        1.9494991269       11.8526839287
 Ga        -1.6857173614        4.8659382188       11.8530120241
 Ga        -3.3719116461        7.7864976362       11.8529726696
 Ga         3.3715787117        2.0398235061       11.8473768866
 Ga         1.7678235915        4.8190754873       11.8476090852
 Ga         0.0004678015        7.7864923753       11.8530125736
 Ga         6.7381912216        1.9494324434       11.8526791015
 Ga         4.9765630935        4.8197855419       11.8473799494
 Ga         3.3715373099        7.7805109471       11.8526845154
  O        -0.0004868210        0.0002813883        3.1494535121
  O        -1.6858066956        2.9193110694        3.1494531537
  O        -3.3704849569        5.8403447841        3.1498963312
  O         3.3715754441       -0.0012461569        3.1498968965
  O         1.6861268326        2.9200640199        3.1511017168
  O        -0.0011209379        5.8403736042        3.1498958827
  O         6.7436040809        0.0002971858        3.1494526726
  O         5.0570030730        2.9200654883        3.1511206794
  O         3.3715651550        5.8393312247        3.1511016859
  O         1.6986076331        0.9774497389       11.8765198724
  O         0.0104219834        3.9018478427       11.8765747936
  O        -1.6857291017        6.8129823210       11.8762834533
  O         5.0447287027        0.9777297643       11.8764940391
  O         1.6834624817        6.7996424536       11.8765749647
  O         8.4289474484        0.9732745868       11.8758171847
  O         6.7329691587        3.9018617249       11.8764943363
  O         5.0601555430        6.7998242717       11.8765218903
  O        -0.0014955133        1.9457120916       20.5997624110
  O        -1.6857988023        4.8660399367       20.5997674609
  O        -3.3719374766        7.7865165456       20.5997571158
  O         3.3715503042        1.9460223221       20.5977491809
  O         1.6852889381        4.8667251101       20.5977616945
  O         0.0003374395        7.7865147933       20.5997680659
  O         6.7446124594        1.9457243323       20.5998075027
  O         5.0578241700        4.8667321915       20.5977502883
  O         3.3715684725        7.7880308892       20.5997632275
  O         0.0016770050       -0.0009692528        7.7017678502
  O        -1.6857567893        2.9217932759        7.7018346908
  O        -3.3801269208        5.8347997239        7.7099812273
  O         3.3715550510        0.0098756326        7.7099803885
  O         1.6746632239        2.9132988099        7.6915445758
  O         0.0083031114        5.8349318079        7.7098189487
  O         6.7414803787       -0.0009896336        7.7018331610
  O         5.0684875468        2.9134306768        7.6916850272
  O         3.3716883234        5.8526400784        7.6915431510
  O         1.6917979063        0.9769884967       16.4186993460
  O         0.0060948922        3.8963601870       16.4188720432
  O        -1.6858039991        6.8130259429       16.4236462210
  O         5.0513790310        0.9770333874       16.4187498276
  O         3.3716716349        3.8930891707       16.4693879510
  O         1.6860507948        6.8061294380       16.4188716535
  O         8.4289371846        0.9732785639       16.4225976742
  O         6.7369064995        3.8964499911       16.4187520658
  O         5.0571536884        6.8059572748       16.4187000049
  O         0.0002030541        1.9466776063       25.1488242064
  O        -1.6857690606        4.8662677353       25.1490825021
  O        -3.3716953660        7.7863764121       25.1490828369
  O         3.3715798555        1.9465489097       25.1489623117
  O         1.6857780286        4.8664420476       25.1489607479
  O         0.0001549408        7.7863746238       25.1490827888
  O         6.7429640961        1.9466762438       25.1488193538
  O         5.0573823547        4.8664416899       25.1489625576
  O         3.3715809633        7.7860746328       25.1488240673
  O         0.0012740979       -0.0007350723       18.5901194756
  O        -1.6858080719        2.9212568498       18.5901891516
  O        -3.3678711496        5.8418446278       18.5946120654
  O         3.3715820102       -0.0042589083       18.5946137141
  O         1.6808668441        2.9170101800       18.5981100963
  O        -0.0036560838        5.8418389341       18.5945942659
  O         6.7419160229       -0.0006779474       18.5901877364
  O         5.0623302716        2.9169906501       18.5981717879
  O         3.3715816012        5.8454110704       18.5981094935
  O         1.6859423923        0.9735795759        1.1444221193
  O         0.0003448314        3.8931240036        1.1444302650
  O        -1.6857786672        6.8130121839        1.1441966731
  O         5.0572165705        0.9735862842        1.1444186761
  O         3.3715821149        3.8931442931        1.1444276332
  O         1.6859791028        6.8127307350        1.1444286527
  O         8.4289325722        0.9732809742        1.1438737252
  O         6.7428105179        3.8931197239        1.1444195330
  O         5.0571785676        6.8127316845        1.1444207783
  O        -0.0002740001        1.9463385393        9.8690474637
  O        -1.6857337319        4.8661788082        9.8688221911
  O        -3.3717086324        7.7863830118        9.8688245231
  O         3.3715294846        2.0108890471        9.8766164143
  O         1.7411275599        4.8344872725        9.8761409041
  O         0.0002501426        7.7863875733        9.8688203724
  O         6.7434651941        1.9463843546        9.8690378888
  O         5.0016327700        4.8343177661        9.8766082726
  O         3.3716354101        7.7866596375        9.8690464891
  O         0.0002558171       -0.0001479693       22.5833984260
  O        -1.6857639632        2.9201373893       22.5833980358
  O        -3.3717180275        5.8396313848       22.5835698638
  O         3.3715755692        0.0001773673       22.5835696214
  O         1.6860128486        2.9199828173       22.5831211083
  O         0.0001703334        5.8396281737       22.5835627498
  O         6.7429069154       -0.0001539143       22.5833986795
  O         5.0571316739        2.9199904485       22.5831346690
  O         3.3715779536        5.8394701760       22.5831201705
  O         1.6863751661        0.9711447703        5.1322010793
  O        -0.0015533485        3.8946973908        5.1321725439
  O        -1.6858681783        6.8130627745        5.1404696033
  O         5.0567570748        0.9711879476        5.1322591637
  O         3.3715807827        3.8931444269        5.1377190922
  O         1.6836651696        6.8135878568        5.1321720969
  O         8.4289201919        0.9732878411        5.1349703916
  O         6.7446573516        3.8947159514        5.1322597179
  O         5.0595026872        6.8135740293        5.1322019427
  O         0.0004490562        1.9467229124       13.8614020852
  O        -1.6858057796        4.8650710521       13.8645747591
  O        -3.3728542480        7.7870442424       13.8645464435
  O         3.3715506670        2.0067249963       13.8393332530
  O         1.7375197116        4.8365674104       13.8406040214
  O         0.0011726191        7.7870037512       13.8645760860
  O         6.7427491675        1.9467969141       13.8613612168
  O         5.0052505758        4.8363775891       13.8393537011
  O         3.3716604006        7.7858421877       13.8614025907
     188
 i =       13, E =     -6889.2254600242
 Zn         0.0001044639       -0.0000604922        5.6993333233
 Zn        -1.6857724584        2.9199754010        5.6993714892
 Zn        -3.3725625558        5.8391438373        5.7007725090
 Zn         3.3715757477        0.0011525861        5.7007717700
 Zn         1.6819913500        2.9176662683        5.6893469240
 Zn         0.0009756923        5.8391624253        5.7007432480
 Zn         6.7430453638       -0.0000656004        5.6993706779
 Zn         5.0611436717        2.9176746457        5.6893800284
 Zn         3.3715731809        5.8441110326        5.6893467187
 Zn         1.6866006783        0.9770237336       14.4120618899
 Zn         0.0036212042        3.8920534879       14.4120408022
 Zn        -1.6857842727        6.8130141929       14.4206245917
 Zn         5.0565361021        0.9770122648       14.4120389880
 Zn         3.3714171605        3.8932374580       14.5025900071
 Zn         1.6885448371        6.8104266367       14.4120415165
 Zn         8.4289316401        0.9732812508       14.4183140971
 Zn         6.7395003034        3.8919962657       14.4120377343
 Zn         5.0545229498        6.8104377706       14.4120595103
 Zn        -0.0005845246        1.9462300863       23.1463999845
 Zn        -1.6857732981        4.8660582956       23.1467136580
 Zn        -3.3718920958        7.7864898356       23.1467230241
 Zn         3.3715673011        1.9463249910       23.1471785830
 Zn         1.6855738193        4.8665600662       23.1471676513
 Zn         0.0003344149        7.7864830366       23.1467147493
 Zn         6.7437380391        1.9462283527       23.1463922803
 Zn         5.0575688660        4.8665655560       23.1471789484
 Zn         3.3715749178        7.7869824385       23.1463994201
 In        -0.0001249239        0.0000716959        0.0527513396
 In        -1.6857776980        2.9197089169        0.0527530203
 In        -3.3713041404        5.8398695256        0.0529866361
 In         3.3715761668       -0.0002990570        0.0529858413
 In         1.6857669398        2.9198482173        0.0524469658
 In        -0.0002518146        5.8398720422        0.0529891478
 In         6.7432737060        0.0000724764        0.0527510717
 In         5.0573843601        2.9198447194        0.0524377315
 In         3.3715723153        5.8397493468        0.0524470421
 In         1.6836463247        0.9749215328        8.7886733245
 In         0.0004297959        3.8905738022        8.7886454633
 In        -1.6857277027        6.8129816605        8.7780272474
 In         5.0594697499        0.9748951838        8.7887308133
 In         3.3714265536        3.8932326105        8.6949383600
 In         1.6882314222        6.8139313649        8.7886444812
 In         8.4289452655        0.9732739057        8.7742641679
 In         6.7427993006        3.8905137111        8.7887346996
 In         5.0548662746        6.8140483548        8.7886720269
 In         0.0001491931        1.9466634776       17.4971225977
 In        -1.6857718830        4.8654176276       17.4950007212
 In        -3.3723900479        7.7867771216       17.4949928501
 In         3.3716088491        1.9401239405       17.5219823950
 In         1.6801949044        4.8696669407       17.5217547861
 In         0.0008886569        7.7868027852       17.4950006027
 In         6.7430058765        1.9466497056       17.4970981769
 In         5.0629602895        4.8696300900       17.5219799629
 In         3.3715670912        7.7861298263       17.4971211445
 Ga        -0.0000772305        0.0000447213       20.5750682356
 Ga        -1.6857955721        2.9197851118       20.5750625016
 Ga        -3.3709029468        5.8401188193       20.5772190080
 Ga         3.3715618082       -0.0007710347       20.5772201720
 Ga         1.6847826123        2.9193006873       20.5781445738
 Ga        -0.0006764630        5.8401178155       20.5771916742
 Ga         6.7431978862        0.0000498739       20.5750633551
 Ga         5.0583395498        2.9192936643       20.5781716204
 Ga         3.3715549162        5.8408757200       20.5781438566
 Ga         1.6857949781        0.9725532637        3.1260081092
 Ga        -0.0006401604        3.8935325750        3.1260155073
 Ga        -1.6857922028        6.8130200419        3.1277416316
 Ga         5.0573409825        0.9725529121        3.1260093902
 Ga         3.3715647700        3.8931539042        3.1262798045
 Ga         1.6851327458        6.8133792068        3.1260153894
 Ga         8.4289134020        0.9732922840        3.1268480774
 Ga         6.7437666064        3.8935286080        3.1260094019
 Ga         5.0579935706        6.8133728855        3.1260082385
 Ga         0.0050359658        1.9494544532       11.8527238040
 Ga        -1.6856928909        4.8659662681       11.8530783702
 Ga        -3.3719278594        7.7865076582       11.8530384562
 Ga         3.3715885861        2.0403434508       11.8473936886
 Ga         1.7678221506        4.8190759509       11.8475739438
 Ga         0.0004560406        7.7864580306       11.8530789364
 Ga         6.7381583577        1.9494506476       11.8527289235
 Ga         4.9761285597        4.8195228720       11.8473963308
 Ga         3.3715936454        7.7805020799       11.8527243154
  O        -0.0004741920        0.0002740895        3.1494495856
  O        -1.6858060561        2.9193248434        3.1494481464
  O        -3.3705024719        5.8403356123        3.1498979445
  O         3.3715746248       -0.0012263856        3.1498984585
  O         1.6861137508        2.9200564761        3.1511176657
  O        -0.0011029346        5.8403632032        3.1499001011
  O         6.7435924546        0.0002897171        3.1494476068
  O         5.0570166016        2.9200576860        3.1511334471
  O         3.3715651576        5.8393463099        3.1511177369
  O         1.6987268489        0.9776025226       11.8765424515
  O         0.0105236932        3.9018138605       11.8766033717
  O        -1.6857586448        6.8129997032       11.8762424901
  O         5.0446224763        0.9778428608       11.8765116498
  O         1.6835427859        6.7995709931       11.8766036516
  O         8.4289438647        0.9732766756       11.8757416078
  O         6.7328206993        3.9018961582       11.8765122576
  O         5.0600831904        6.7996469184       11.8765446576
  O        -0.0014699743        1.9457272174       20.5997638499
  O        -1.6857992572        4.8660495460       20.5997693146
  O        -3.3719287343        7.7865115036       20.5997609235
  O         3.3715515404        1.9460327568       20.5977657078
  O         1.6852987090        4.8667194091       20.5977732681
  O         0.0003289068        7.7865103964       20.5997699515
  O         6.7445856750        1.9457397834       20.5998079982
  O         5.0578157416        4.8667259058       20.5977667782
  O         3.3715682134        7.7880011711       20.5997646862
  O         0.0016671714       -0.0009636345        7.7017967734
  O        -1.6857634742        2.9217656295        7.7018548686
  O        -3.3801056607        5.8348176199        7.7100539432
  O         3.3715501040        0.0098481132        7.7100532889
  O         1.6746345207        2.9133030706        7.6915060898
  O         0.0082800763        5.8349450672        7.7098714401
  O         6.7415007495       -0.0009701176        7.7018534386
  O         5.0684887445        2.9134301552        7.6916587383
  O         3.3716704466        5.8526625630        7.6915046673
  O         1.6917595382        0.9769422726       16.4186942314
  O         0.0060402305        3.8963504409       16.4188551983
  O        -1.6858043263        6.8130261301       16.4236576626
  O         5.0514147353        0.9769914956       16.4187525571
  O         3.3716546215        3.8930993469       16.4694044609
  O         1.6860318810        6.8061816467       16.4188548654
  O         8.4289400457        0.9732768322       16.4226604911
  O         6.7369604704        3.8964400199       16.4187549101
  O         5.0571744781        6.8060134840       16.4186949281
  O         0.0001978315        1.9466746300       25.1488237549
  O        -1.6857691356        4.8662726581       25.1490816839
  O        -3.3716911424        7.7863739283       25.1490821874
  O         3.3715796985        1.9465483793       25.1489581096
  O         1.6857776464        4.8664422868       25.1489566851
  O         0.0001507042        7.7863722022       25.1490819733
  O         6.7429693411        1.9466731950       25.1488189706
  O         5.0573827851        4.8664421277       25.1489583581
  O         3.3715809282        7.7860806347       25.1488236585
  O         0.0012806323       -0.0007387680       18.5901761813
  O        -1.6858100982        2.9212586034       18.5902406922
  O        -3.3678858497        5.8418385995       18.5946170844
  O         3.3715799087       -0.0042431088       18.5946187216
  O         1.6808769118        2.9170055276       18.5980557066
  O        -0.0036488384        5.8418347136       18.5946043201
  O         6.7419134839       -0.0006770489       18.5902392848
  O         5.0623201103        2.9169963309       18.5981070309
  O         3.3715905070        5.8454048407       18.5980551994
  O         1.6859383870        0.9735805331        1.1444220682
  O         0.0003433073        3.8931204943        1.1444289948
  O        -1.6857780362        6.8130117816        1.1442158640
  O         5.0572206475        0.9735863870        1.1444164795
  O         3.3715818348        3.8931444466        1.1444400829
  O         1.6859813479        6.8127338729        1.1444273994
  O         8.4289323072        0.9732810699        1.1438910801
  O         6.7428123933        3.8931161980        1.1444173024
  O         5.0571758094        6.8127346673        1.1444207007
  O        -0.0002719830        1.9463579459        9.8690749414
  O        -1.6857723665        4.8661247738        9.8688891763
  O        -3.3717541433        7.7864097065        9.8689023692
  O         3.3715249037        2.0109201305        9.8765734868
  O         1.7411565903        4.8344706760        9.8761338809
  O         0.0002774741        7.7864482981        9.8688874592
  O         6.7434581272        1.9463885698        9.8690685545
  O         5.0016043767        4.8343066854        9.8765663059
  O         3.3716197176        7.7866479082        9.8690739879
  O         0.0002520805       -0.0001458136       22.5833862998
  O        -1.6857639954        2.9201331777       22.5833842771
  O        -3.3717171593        5.8396319254       22.5835710388
  O         3.3715755239        0.0001763648       22.5835707857
  O         1.6860085502        2.9199802541       22.5831183526
  O         0.0001697430        5.8396285333       22.5835649698
  O         6.7429105601       -0.0001518098       22.5833849738
  O         5.0571361554        2.9199878303       22.5831297595
  O         3.3715780630        5.8394752274       22.5831174243
  O         1.6863827882        0.9711259274        5.1322269608
  O        -0.0015655697        3.8947126100        5.1321981110
  O        -1.6858676327        6.8130624576        5.1404561163
  O         5.0567476968        0.9711676927        5.1322788093
  O         3.3715851754        3.8931418389        5.1376934507
  O         1.6836459188        6.8135908157        5.1321977108
  O         8.4289233215        0.9732860027        5.1349469589
  O         6.7446701924        3.8947341592        5.1322793451
  O         5.0595227909        6.8135768464        5.1322278556
  O         0.0003891172        1.9467153071       13.8613895212
  O        -1.6858416795        4.8650742138       13.8645087658
  O        -3.3728541121        7.7870445030       13.8644676932
  O         3.3715377598        2.0067483039       13.8396385604
  O         1.7374913765        4.8365839716       13.8407825254
  O         0.0011517295        7.7870335557       13.8645100153
  O         6.7428022541        1.9467663697       13.8613584344
  O         5.0052252636        4.8363779483       13.8396577989
  O         3.3716371758        7.7858976125       13.8613900253
     188
 i =       14, E =     -6889.2254698191
 Zn         0.0001044639       -0.0000604922        5.6993333233
 Zn        -1.6857724584        2.9199754010        5.6993714892
 Zn        -3.3725625558        5.8391438373        5.7007725090
 Zn         3.3715757477        0.0011525861        5.7007717700
 Zn         1.6819913500        2.9176662683        5.6893469240
 Zn         0.0009756923        5.8391624253        5.7007432480
 Zn         6.7430453638       -0.0000656004        5.6993706779
 Zn         5.0611436717        2.9176746457        5.6893800284
 Zn         3.3715731809        5.8441110326        5.6893467187
 Zn         1.6866006783        0.9770237336       14.4120618899
 Zn         0.0036212042        3.8920534879       14.4120408022
 Zn        -1.6857842727        6.8130141929       14.4206245917
 Zn         5.0565361021        0.9770122648       14.4120389880
 Zn         3.3714171605        3.8932374580       14.5025900071
 Zn         1.6885448371        6.8104266367       14.4120415165
 Zn         8.4289316401        0.9732812508       14.4183140971
 Zn         6.7395003034        3.8919962657       14.4120377343
 Zn         5.0545229498        6.8104377706       14.4120595103
 Zn        -0.0005845246        1.9462300863       23.1463999845
 Zn        -1.6857732981        4.8660582956       23.1467136580
 Zn        -3.3718920958        7.7864898356       23.1467230241
 Zn         3.3715673011        1.9463249910       23.1471785830
 Zn         1.6855738193        4.8665600662       23.1471676513
 Zn         0.0003344149        7.7864830366       23.1467147493
 Zn         6.7437380391        1.9462283527       23.1463922803
 Zn         5.0575688660        4.8665655560       23.1471789484
 Zn         3.3715749178        7.7869824385       23.1463994201
 In        -0.0001249239        0.0000716959        0.0527513396
 In        -1.6857776980        2.9197089169        0.0527530203
 In        -3.3713041404        5.8398695256        0.0529866361
 In         3.3715761668       -0.0002990570        0.0529858413
 In         1.6857669398        2.9198482173        0.0524469658
 In        -0.0002518146        5.8398720422        0.0529891478
 In         6.7432737060        0.0000724764        0.0527510717
 In         5.0573843601        2.9198447194        0.0524377315
 In         3.3715723153        5.8397493468        0.0524470421
 In         1.6836463247        0.9749215328        8.7886733245
 In         0.0004297959        3.8905738022        8.7886454633
 In        -1.6857277027        6.8129816605        8.7780272474
 In         5.0594697499        0.9748951838        8.7887308133
 In         3.3714265536        3.8932326105        8.6949383600
 In         1.6882314222        6.8139313649        8.7886444812
 In         8.4289452655        0.9732739057        8.7742641679
 In         6.7427993006        3.8905137111        8.7887346996
 In         5.0548662746        6.8140483548        8.7886720269
 In         0.0001491931        1.9466634776       17.4971225977
 In        -1.6857718830        4.8654176276       17.4950007212
 In        -3.3723900479        7.7867771216       17.4949928501
 In         3.3716088491        1.9401239405       17.5219823950
 In         1.6801949044        4.8696669407       17.5217547861
 In         0.0008886569        7.7868027852       17.4950006027
 In         6.7430058765        1.9466497056       17.4970981769
 In         5.0629602895        4.8696300900       17.5219799629
 In         3.3715670912        7.7861298263       17.4971211445
 Ga        -0.0000772305        0.0000447213       20.5750682356
 Ga        -1.6857955721        2.9197851118       20.5750625016
 Ga        -3.3709029468        5.8401188193       20.5772190080
 Ga         3.3715618082       -0.0007710347       20.5772201720
 Ga         1.6847826123        2.9193006873       20.5781445738
 Ga        -0.0006764630        5.8401178155       20.5771916742
 Ga         6.7431978862        0.0000498739       20.5750633551
 Ga         5.0583395498        2.9192936643       20.5781716204
 Ga         3.3715549162        5.8408757200       20.5781438566
 Ga         1.6857949781        0.9725532637        3.1260081092
 Ga        -0.0006401604        3.8935325750        3.1260155073
 Ga        -1.6857922028        6.8130200419        3.1277416316
 Ga         5.0573409825        0.9725529121        3.1260093902
 Ga         3.3715647700        3.8931539042        3.1262798045
 Ga         1.6851327458        6.8133792068        3.1260153894
 Ga         8.4289134020        0.9732922840        3.1268480774
 Ga         6.7437666064        3.8935286080        3.1260094019
 Ga         5.0579935706        6.8133728855        3.1260082385
 Ga         0.0050359658        1.9494544532       11.8527238040
 Ga        -1.6856928909        4.8659662681       11.8530783702
 Ga        -3.3719278594        7.7865076582       11.8530384562
 Ga         3.3715885861        2.0403434508       11.8473936886
 Ga         1.7678221506        4.8190759509       11.8475739438
 Ga         0.0004560406        7.7864580306       11.8530789364
 Ga         6.7381583577        1.9494506476       11.8527289235
 Ga         4.9761285597        4.8195228720       11.8473963308
 Ga         3.3715936454        7.7805020799       11.8527243154
  O        -0.0004741920        0.0002740895        3.1494495856
  O        -1.6858060561        2.9193248434        3.1494481464
  O        -3.3705024719        5.8403356123        3.1498979445
  O         3.3715746248       -0.0012263856        3.1498984585
  O         1.6861137508        2.9200564761        3.1511176657
  O        -0.0011029346        5.8403632032        3.1499001011
  O         6.7435924546        0.0002897171        3.1494476068
  O         5.0570166016        2.9200576860        3.1511334471
  O         3.3715651576        5.8393463099        3.1511177369
  O         1.6987268489        0.9776025226       11.8765424515
  O         0.0105236932        3.9018138605       11.8766033717
  O        -1.6857586448        6.8129997032       11.8762424901
  O         5.0446224763        0.9778428608       11.8765116498
  O         1.6835427859        6.7995709931       11.8766036516
  O         8.4289438647        0.9732766756       11.8757416078
  O         6.7328206993        3.9018961582       11.8765122576
  O         5.0600831904        6.7996469184       11.8765446576
  O        -0.0014699743        1.9457272174       20.5997638499
  O        -1.6857992572        4.8660495460       20.5997693146
  O        -3.3719287343        7.7865115036       20.5997609235
  O         3.3715515404        1.9460327568       20.5977657078
  O         1.6852987090        4.8667194091       20.5977732681
  O         0.0003289068        7.7865103964       20.5997699515
  O         6.7445856750        1.9457397834       20.5998079982
  O         5.0578157416        4.8667259058       20.5977667782
  O         3.3715682134        7.7880011711       20.5997646862
  O         0.0016671714       -0.0009636345        7.7017967734
  O        -1.6857634742        2.9217656295        7.7018548686
  O        -3.3801056607        5.8348176199        7.7100539432
  O         3.3715501040        0.0098481132        7.7100532889
  O         1.6746345207        2.9133030706        7.6915060898
  O         0.0082800763        5.8349450672        7.7098714401
  O         6.7415007495       -0.0009701176        7.7018534386
  O         5.0684887445        2.9134301552        7.6916587383
  O         3.3716704466        5.8526625630        7.6915046673
  O         1.6917595382        0.9769422726       16.4186942314
  O         0.0060402305        3.8963504409       16.4188551983
  O        -1.6858043263        6.8130261301       16.4236576626
  O         5.0514147353        0.9769914956       16.4187525571
  O         3.3716546215        3.8930993469       16.4694044609
  O         1.6860318810        6.8061816467       16.4188548654
  O         8.4289400457        0.9732768322       16.4226604911
  O         6.7369604704        3.8964400199       16.4187549101
  O         5.0571744781        6.8060134840       16.4186949281
  O         0.0001978315        1.9466746300       25.1488237549
  O        -1.6857691356        4.8662726581       25.1490816839
  O        -3.3716911424        7.7863739283       25.1490821874
  O         3.3715796985        1.9465483793       25.1489581096
  O         1.6857776464        4.8664422868       25.1489566851
  O         0.0001507042        7.7863722022       25.1490819733
  O         6.7429693411        1.9466731950       25.1488189706
  O         5.0573827851        4.8664421277       25.1489583581
  O         3.3715809282        7.7860806347       25.1488236585
  O         0.0012806323       -0.0007387680       18.5901761813
  O        -1.6858100982        2.9212586034       18.5902406922
  O        -3.3678858497        5.8418385995       18.5946170844
  O         3.3715799087       -0.0042431088       18.5946187216
  O         1.6808769118        2.9170055276       18.5980557066
  O        -0.0036488384        5.8418347136       18.5946043201
  O         6.7419134839       -0.0006770489       18.5902392848
  O         5.0623201103        2.9169963309       18.5981070309
  O         3.3715905070        5.8454048407       18.5980551994
  O         1.6859383870        0.9735805331        1.1444220682
  O         0.0003433073        3.8931204943        1.1444289948
  O        -1.6857780362        6.8130117816        1.1442158640
  O         5.0572206475        0.9735863870        1.1444164795
  O         3.3715818348        3.8931444466        1.1444400829
  O         1.6859813479        6.8127338729        1.1444273994
  O         8.4289323072        0.9732810699        1.1438910801
  O         6.7428123933        3.8931161980        1.1444173024
  O         5.0571758094        6.8127346673        1.1444207007
  O        -0.0002719830        1.9463579459        9.8690749414
  O        -1.6857723665        4.8661247738        9.8688891763
  O        -3.3717541433        7.7864097065        9.8689023692
  O         3.3715249037        2.0109201305        9.8765734868
  O         1.7411565903        4.8344706760        9.8761338809
  O         0.0002774741        7.7864482981        9.8688874592
  O         6.7434581272        1.9463885698        9.8690685545
  O         5.0016043767        4.8343066854        9.8765663059
  O         3.3716197176        7.7866479082        9.8690739879
  O         0.0002520805       -0.0001458136       22.5833862998
  O        -1.6857639954        2.9201331777       22.5833842771
  O        -3.3717171593        5.8396319254       22.5835710388
  O         3.3715755239        0.0001763648       22.5835707857
  O         1.6860085502        2.9199802541       22.5831183526
  O         0.0001697430        5.8396285333       22.5835649698
  O         6.7429105601       -0.0001518098       22.5833849738
  O         5.0571361554        2.9199878303       22.5831297595
  O         3.3715780630        5.8394752274       22.5831174243
  O         1.6863827882        0.9711259274        5.1322269608
  O        -0.0015655697        3.8947126100        5.1321981110
  O        -1.6858676327        6.8130624576        5.1404561163
  O         5.0567476968        0.9711676927        5.1322788093
  O         3.3715851754        3.8931418389        5.1376934507
  O         1.6836459188        6.8135908157        5.1321977108
  O         8.4289233215        0.9732860027        5.1349469589
  O         6.7446701924        3.8947341592        5.1322793451
  O         5.0595227909        6.8135768464        5.1322278556
  O         0.0003891172        1.9467153071       13.8613895212
  O        -1.6858416795        4.8650742138       13.8645087658
  O        -3.3728541121        7.7870445030       13.8644676932
  O         3.3715377598        2.0067483039       13.8396385604
  O         1.7374913765        4.8365839716       13.8407825254
  O         0.0011517295        7.7870335557       13.8645100153
  O         6.7428022541        1.9467663697       13.8613584344
  O         5.0052252636        4.8363779483       13.8396577989
  O         3.3716371758        7.7858976125       13.8613900253
