188
i =       14, E =     -6889.2254698191
Zn       0.0001044639      -0.0000604922       5.6993333233
Zn      -1.6857724584       2.9199754010       5.6993714892
Zn      -3.3725625558       5.8391438373       5.7007725090
Zn       3.3715757477       0.0011525861       5.7007717700
Zn       1.6819913500       2.9176662683       5.6893469240
Zn       0.0009756923       5.8391624253       5.7007432480
Zn       6.7430453638      -0.0000656004       5.6993706779
Zn       5.0611436717       2.9176746457       5.6893800284
Zn       3.3715731809       5.8441110326       5.6893467187
Zn       1.6866006783       0.9770237336      14.4120618899
Zn       0.0036212042       3.8920534879      14.4120408022
Zn      -1.6857842727       6.8130141929      14.4206245917
Zn       5.0565361021       0.9770122648      14.4120389880
Zn       3.3714171605       3.8932374580      14.5025900071
Zn       1.6885448371       6.8104266367      14.4120415165
Zn       8.4289316401       0.9732812508      14.4183140971
Zn       6.7395003034       3.8919962657      14.4120377343
Zn       5.0545229498       6.8104377706      14.4120595103
Zn      -0.0005845246       1.9462300863      23.1463999845
Zn      -1.6857732981       4.8660582956      23.1467136580
Zn      -3.3718920958       7.7864898356      23.1467230241
Zn       3.3715673011       1.9463249910      23.1471785830
Zn       1.6855738193       4.8665600662      23.1471676513
Zn       0.0003344149       7.7864830366      23.1467147493
Zn       6.7437380391       1.9462283527      23.1463922803
Zn       5.0575688660       4.8665655560      23.1471789484
Zn       3.3715749178       7.7869824385      23.1463994201
In      -0.0001249239       0.0000716959       0.0527513396
In      -1.6857776980       2.9197089169       0.0527530203
In      -3.3713041404       5.8398695256       0.0529866361
In       3.3715761668      -0.0002990570       0.0529858413
In       1.6857669398       2.9198482173       0.0524469658
In      -0.0002518146       5.8398720422       0.0529891478
In       6.7432737060       0.0000724764       0.0527510717
In       5.0573843601       2.9198447194       0.0524377315
In       3.3715723153       5.8397493468       0.0524470421
In       1.6836463247       0.9749215328       8.7886733245
In       0.0004297959       3.8905738022       8.7886454633
In      -1.6857277027       6.8129816605       8.7780272474
In       5.0594697499       0.9748951838       8.7887308133
In       3.3714265536       3.8932326105       8.6949383600
In       1.6882314222       6.8139313649       8.7886444812
In       8.4289452655       0.9732739057       8.7742641679
In       6.7427993006       3.8905137111       8.7887346996
In       5.0548662746       6.8140483548       8.7886720269
In       0.0001491931       1.9466634776      17.4971225977
In      -1.6857718830       4.8654176276      17.4950007212
In      -3.3723900479       7.7867771216      17.4949928501
In       3.3716088491       1.9401239405      17.5219823950
In       1.6801949044       4.8696669407      17.5217547861
In       0.0008886569       7.7868027852      17.4950006027
In       6.7430058765       1.9466497056      17.4970981769
In       5.0629602895       4.8696300900      17.5219799629
In       3.3715670912       7.7861298263      17.4971211445
Ga      -0.0000772305       0.0000447213      20.5750682356
Ga      -1.6857955721       2.9197851118      20.5750625016
Ga      -3.3709029468       5.8401188193      20.5772190080
Ga       3.3715618082      -0.0007710347      20.5772201720
Ga       1.6847826123       2.9193006873      20.5781445738
Ga      -0.0006764630       5.8401178155      20.5771916742
Ga       6.7431978862       0.0000498739      20.5750633551
Ga       5.0583395498       2.9192936643      20.5781716204
Ga       3.3715549162       5.8408757200      20.5781438566
Ga       1.6857949781       0.9725532637       3.1260081092
Ga      -0.0006401604       3.8935325750       3.1260155073
Ga      -1.6857922028       6.8130200419       3.1277416316
Ga       5.0573409825       0.9725529121       3.1260093902
Ga       3.3715647700       3.8931539042       3.1262798045
Ga       1.6851327458       6.8133792068       3.1260153894
Ga       8.4289134020       0.9732922840       3.1268480774
Ga       6.7437666064       3.8935286080       3.1260094019
Ga       5.0579935706       6.8133728855       3.1260082385
Ga       0.0050359658       1.9494544532      11.8527238040
Ga      -1.6856928909       4.8659662681      11.8530783702
Ga      -3.3719278594       7.7865076582      11.8530384562
Ga       3.3715885861       2.0403434508      11.8473936886
Ga       1.7678221506       4.8190759509      11.8475739438
Ga       0.0004560406       7.7864580306      11.8530789364
Ga       6.7381583577       1.9494506476      11.8527289235
Ga       4.9761285597       4.8195228720      11.8473963308
Ga       3.3715936454       7.7805020799      11.8527243154
O       -0.0004741920       0.0002740895       3.1494495856
O       -1.6858060561       2.9193248434       3.1494481464
O       -3.3705024719       5.8403356123       3.1498979445
O        3.3715746248      -0.0012263856       3.1498984585
O        1.6861137508       2.9200564761       3.1511176657
O       -0.0011029346       5.8403632032       3.1499001011
O        6.7435924546       0.0002897171       3.1494476068
O        5.0570166016       2.9200576860       3.1511334471
O        3.3715651576       5.8393463099       3.1511177369
O        1.6987268489       0.9776025226      11.8765424515
O        0.0105236932       3.9018138605      11.8766033717
O       -1.6857586448       6.8129997032      11.8762424901
O        5.0446224763       0.9778428608      11.8765116498
O        1.6835427859       6.7995709931      11.8766036516
O        8.4289438647       0.9732766756      11.8757416078
O        6.7328206993       3.9018961582      11.8765122576
O        5.0600831904       6.7996469184      11.8765446576
O       -0.0014699743       1.9457272174      20.5997638499
O       -1.6857992572       4.8660495460      20.5997693146
O       -3.3719287343       7.7865115036      20.5997609235
O        3.3715515404       1.9460327568      20.5977657078
O        1.6852987090       4.8667194091      20.5977732681
O        0.0003289068       7.7865103964      20.5997699515
O        6.7445856750       1.9457397834      20.5998079982
O        5.0578157416       4.8667259058      20.5977667782
O        3.3715682134       7.7880011711      20.5997646862
O        0.0016671714      -0.0009636345       7.7017967734
O       -1.6857634742       2.9217656295       7.7018548686
O       -3.3801056607       5.8348176199       7.7100539432
O        3.3715501040       0.0098481132       7.7100532889
O        1.6746345207       2.9133030706       7.6915060898
O        0.0082800763       5.8349450672       7.7098714401
O        6.7415007495      -0.0009701176       7.7018534386
O        5.0684887445       2.9134301552       7.6916587383
O        3.3716704466       5.8526625630       7.6915046673
O        1.6917595382       0.9769422726      16.4186942314
O        0.0060402305       3.8963504409      16.4188551983
O       -1.6858043263       6.8130261301      16.4236576626
O        5.0514147353       0.9769914956      16.4187525571
O        3.3716546215       3.8930993469      16.4694044609
O        1.6860318810       6.8061816467      16.4188548654
O        8.4289400457       0.9732768322      16.4226604911
O        6.7369604704       3.8964400199      16.4187549101
O        5.0571744781       6.8060134840      16.4186949281
O        0.0001978315       1.9466746300      25.1488237549
O       -1.6857691356       4.8662726581      25.1490816839
O       -3.3716911424       7.7863739283      25.1490821874
O        3.3715796985       1.9465483793      25.1489581096
O        1.6857776464       4.8664422868      25.1489566851
O        0.0001507042       7.7863722022      25.1490819733
O        6.7429693411       1.9466731950      25.1488189706
O        5.0573827851       4.8664421277      25.1489583581
O        3.3715809282       7.7860806347      25.1488236585
O        0.0012806323      -0.0007387680      18.5901761813
O       -1.6858100982       2.9212586034      18.5902406922
O       -3.3678858497       5.8418385995      18.5946170844
O        3.3715799087      -0.0042431088      18.5946187216
O        1.6808769118       2.9170055276      18.5980557066
O       -0.0036488384       5.8418347136      18.5946043201
O        6.7419134839      -0.0006770489      18.5902392848
O        5.0623201103       2.9169963309      18.5981070309
O        3.3715905070       5.8454048407      18.5980551994
O        1.6859383870       0.9735805331       1.1444220682
O        0.0003433073       3.8931204943       1.1444289948
O       -1.6857780362       6.8130117816       1.1442158640
O        5.0572206475       0.9735863870       1.1444164795
O        3.3715818348       3.8931444466       1.1444400829
O        1.6859813479       6.8127338729       1.1444273994
O        8.4289323072       0.9732810699       1.1438910801
O        6.7428123933       3.8931161980       1.1444173024
O        5.0571758094       6.8127346673       1.1444207007
O       -0.0002719830       1.9463579459       9.8690749414
O       -1.6857723665       4.8661247738       9.8688891763
O       -3.3717541433       7.7864097065       9.8689023692
O        3.3715249037       2.0109201305       9.8765734868
O        1.7411565903       4.8344706760       9.8761338809
O        0.0002774741       7.7864482981       9.8688874592
O        6.7434581272       1.9463885698       9.8690685545
O        5.0016043767       4.8343066854       9.8765663059
O        3.3716197176       7.7866479082       9.8690739879
O        0.0002520805      -0.0001458136      22.5833862998
O       -1.6857639954       2.9201331777      22.5833842771
O       -3.3717171593       5.8396319254      22.5835710388
O        3.3715755239       0.0001763648      22.5835707857
O        1.6860085502       2.9199802541      22.5831183526
O        0.0001697430       5.8396285333      22.5835649698
O        6.7429105601      -0.0001518098      22.5833849738
O        5.0571361554       2.9199878303      22.5831297595
O        3.3715780630       5.8394752274      22.5831174243
O        1.6863827882       0.9711259274       5.1322269608
O       -0.0015655697       3.8947126100       5.1321981110
O       -1.6858676327       6.8130624576       5.1404561163
O        5.0567476968       0.9711676927       5.1322788093
O        3.3715851754       3.8931418389       5.1376934507
O        1.6836459188       6.8135908157       5.1321977108
O        8.4289233215       0.9732860027       5.1349469589
O        6.7446701924       3.8947341592       5.1322793451
O        5.0595227909       6.8135768464       5.1322278556
O        0.0003891172       1.9467153071      13.8613895212
O       -1.6858416795       4.8650742138      13.8645087658
O       -3.3728541121       7.7870445030      13.8644676932
O        3.3715377598       2.0067483039      13.8396385604
O        1.7374913765       4.8365839716      13.8407825254
O        0.0011517295       7.7870335557      13.8645100153
O        6.7428022541       1.9467663697      13.8613584344
O        5.0052252636       4.8363779483      13.8396577989
O        3.3716371758       7.7858976125      13.8613900253
