      21
 i =       24, E =      -767.2479803823
 Ga         0.0000000336        0.0000055885        5.6066435626
 Ga        -0.0000113940        0.0000226323       20.4458406118
 Ga         1.6495002041        0.9523311295       14.3085584788
 Zn         1.6495326824        0.9523076593        3.0298035759
 Zn         0.0000248024        1.9047251207       23.0241217688
 Zn         0.0001702900        1.9046206983       11.7297023160
 In        -0.0000357546       -0.0000432908       -0.0213626611
 In         1.6494662774        0.9522458443        8.6751835461
 In        -0.0000881318        1.9046745944       17.3798592809
  O        -0.0000447875        0.0000232763        3.6251865715
  O        -0.0000409207       -0.0000461729       22.4220079254
  O         1.6493784154        0.9524119442       12.3257577777
  O         1.6495066218        0.9523584336        5.6147018329
  O        -0.0000058458        1.9046981805       20.4278529591
  O        -0.0000757356        1.9046788752       14.3168170052
  O        -0.0000409585        0.0000822185        7.5892433148
  O        -0.0000157388       -0.0000372952       18.4633193768
  O         1.6494483849        0.9522785035       16.2917360444
  O         1.6493871326        0.9522977955        1.0722550608
  O        -0.0000281943        1.9047799251       24.9819027322
  O        -0.0000066391        1.9047241666        9.7710850452
