335
i =       14, E =    -12260.0702450983
Zn      -0.0006901739       0.0000049961       5.6967690363
Zn      -1.6943661833       2.9149067357       5.6653988235
Zn      -3.3719096230       5.8391252593       5.6967751632
Zn      -5.0573513848       8.7595905423       5.6907864430
Zn       3.3722622680       0.0000008831       5.6967702930
Zn       1.6857878096       2.9106643730       5.6399718231
Zn      -0.0079637041       5.8443253817       5.6399754781
Zn      -1.6854341850       8.7601894953       5.6967773360
Zn       6.7431635985       0.0000125494       5.6934682194
Zn       5.0659423556       2.9148991803       5.6653742336
Zn       3.3795355995       5.8443259662       5.6399613902
Zn       1.6857826556       8.7695085819       5.6653927019
Zn      10.1146835608       0.0000140784       5.6934701478
Zn       8.4289223189       2.9198366860       5.6934679072
Zn       6.7434858271       5.8391256095       5.6967641741
Zn       5.0570053509       8.7601899042       5.6967725871
Zn       1.6857972636       0.9414767205      14.4459170214
Zn      -0.3325564339       3.7012154940      14.4868114587
Zn      -1.7134455287       6.8289824787      14.4459412619
Zn      -3.3779999442       9.7291827480      14.4266805724
Zn       5.0932443020       0.9259648442      14.4330409478
Zn       3.7041653727       3.7012314526      14.4868190774
Zn       1.6857442652       7.1969948664      14.4868063131
Zn      -0.0230543366       9.7876292090      14.4330377623
Zn       8.4289183823       0.9732849414      14.4248727456
Zn       6.8020774688       3.8857295964      14.4330426800
Zn       5.0849672685       6.8290012150      14.4459294683
Zn       3.3946131725       9.7876297871      14.4330392000
Zn      11.7645999550       0.9259630225      14.4330373234
Zn      10.0557614563       3.8857347895      14.4330396642
Zn       8.4289142089       6.8204312338      14.4266800904
Zn       6.7495723696       9.7291806095      14.4266768454
Zn       0.0000939669       1.9470184974      23.1515294567
Zn      -1.6853545984       4.8662969654      23.1515335743
Zn      -3.3713602446       7.7861805756      23.1504973175
Zn      -5.0573521348      10.7064096855      23.1504943319
Zn       3.3714699127       1.9470202872      23.1515294105
Zn       1.6857828950       4.8664367584      23.1504092968
Zn       0.0003381712       7.7860002063      23.1515301050
Zn      -1.6851529659      10.7065325217      23.1502605227
Zn       6.7429170766       1.9467053166      23.1499042180
Zn       5.0569202481       4.8663033945      23.1515273544
Zn       3.3712322535       7.7859986800      23.1515276147
Zn       1.6857847631      10.7059146895      23.1499017228
Zn      10.1149204259       1.9467023642      23.1499066572
Zn       8.4289175328       4.8657113847      23.1502646059
Zn       6.7429246450       7.7861810495      23.1504933169
Zn       5.0567225110      10.7065295347      23.1502601032
In      -0.0002406064      -0.0008040508       0.0524187029
In      -1.6867232027       2.9193203834       0.0507861580
In      -3.3723885893       5.8399198094       0.0524135080
In      -5.0573566563       8.7595878582       0.0511962607
In       3.3718113355      -0.0008055837       0.0524168074
In       1.6857796088       2.9192499273       0.0484815126
In      -0.0005305928       5.8400348304       0.0484833958
In      -1.6863597066       8.7602044784       0.0524149978
In       6.7434806052       0.0001938418       0.0519110464
In       5.0582920849       2.9193194440       0.0507848965
In       3.3721014589       5.8400353100       0.0484900594
In       1.6857840139       8.7606761209       0.0507882364
In      10.1143658091       0.0001950754       0.0519136490
In       8.4289212463       2.9194714927       0.0519126045
In       6.7439571659       5.8399217498       0.0524205139
In       5.0579287010       8.7602024142       0.0524201734
In       1.6857889909       0.9804412018       8.7862330630
In      -0.0199606555       3.8816181519       8.6388572364
In      -1.6795826789       6.8094346817       8.7862428180
In      -3.3713611353       9.7329958491       8.7693284601
In       5.0607663231       0.9735599955       8.7802340743
In       3.3915581227       3.8816192667       8.6388580261
In       1.6857992708       6.8360806053       8.6388510645
In       0.0019450912       9.7356957069       8.7802403739
In       8.4289226774       0.9732846679       8.7574321331
In       6.7446123756       3.8900610711       8.7802299966
In       5.0511701235       6.8094401606       8.7862233677
In       3.3696313778       9.7356980008       8.7802451571
In      11.7970863559       0.9735610787       8.7802425196
In      10.1132410027       3.8900612708       8.7802427071
In       8.4289260280       6.8127789903       8.7693289270
In       6.7429398265       9.7329999579       8.7693348910
In       0.0017507796       1.9364986632      17.5222889401
In      -1.6936361653       4.8729924622      17.5223017678
In      -3.3763263592       7.7890511006      17.5093909212
In      -5.0573544203      10.7006786679      17.5093768886
In       3.3698127174       1.9364991801      17.5222962066
In       1.6857841422       4.8664431459      17.4985669570
In      -0.0096057246       7.7898224065      17.5223032661
In      -1.6876503286      10.7050902575      17.5159120114
In       6.7447992724       1.9456148169      17.5099074205
In       5.0652039571       4.8729968014      17.5223050917
In       3.3811706384       7.7898277690      17.5222864937
In       1.6857805927      10.7080863113      17.5099056951
In      10.1130362514       1.9456136926      17.5099027264
In       8.4289211349       4.8685973311      17.5159141727
In       6.7478898649       7.7890500667      17.5093877056
In       5.0592180070      10.7050896818      17.5159113228
Ga       0.0004724762      -0.0007858905      20.5837917801
Ga      -1.6845573179       2.9205743036      20.5811544079
Ga      -3.3720141725       5.8405282757      20.5837904307
Ga      -5.0573530622       8.7595880969      20.5830811362
Ga       3.3710966426      -0.0007823694      20.5837893893
Ga       1.6857825107       2.9211498867      20.5818988411
Ga       0.0011138366       5.8390855564      20.5819050975
Ga      -1.6866980265       8.7595741455      20.5837910757
Ga       6.7428397815      -0.0001704405      20.5808437752
Ga       5.0561232402       2.9205740356      20.5811539109
Ga       3.3704561078       5.8390883231      20.5818992862
Ga       1.6857836774       8.7581715546      20.5811519573
Ga      10.1149984376      -0.0001714600      20.5808466174
Ga       8.4289176737       2.9202065705      20.5808421644
Ga       6.7435775434       5.8405267477      20.5837886248
Ga       5.0582658939       8.7595727392      20.5837896400
Ga       1.6857821551       0.9690037423       3.1210250677
Ga      -0.0017295416       3.8921487119       3.1181222089
Ga      -1.6894963061       6.8151597374       3.1210360538
Ga      -3.3713627723       9.7330020053       3.1257642782
Ga       5.0575467233       0.9712697558       3.1229827306
Ga       3.3733014552       3.8921523228       3.1181173536
Ga       1.6857876296       6.8150147629       3.1181203987
Ga      -0.0016478517       9.7340593966       3.1229856686
Ga       8.4289231114       0.9732830738       3.1250088176
Ga       6.7449833026       3.8939913331       3.1229855408
Ga       5.0610651155       6.8151612969       3.1210256023
Ga       3.3732202616       9.7340566109       3.1229833408
Ga      11.8002982614       0.9712673003       3.1229854372
Ga      10.1128540093       3.8939920477       3.1229911533
Ga       8.4289124045       6.8127748664       3.1257656261
Ga       6.7429244479       9.7329953675       3.1257600253
Ga       0.0083329564       1.9484839733      11.8462401463
Ga      -1.6799794647       4.8727012181      11.8462350227
Ga      -3.3742902036       7.7878721868      11.8480516739
Ga      -5.0573524347      10.7030349586      11.8480611442
Ga       3.3632385388       1.9484865949      11.8462456286
Ga       1.6857841921       4.8664430163      11.5495798467
Ga      -0.0025206737       7.7781396380      11.8462391070
Ga      -1.6880489749      10.7048622262      11.8415317995
Ga       6.7429847957       1.9466637329      11.8451388762
Ga       5.0515443568       4.8727112894      11.8462342996
Ga       3.3740868161       7.7781359407      11.8462402938
Ga       1.6857852579      10.7059926930      11.8451430026
Ga      10.1148566027       1.9466627393      11.8451403421
Ga       8.4289178569       4.8690531439      11.8415234465
Ga       6.7458530980       7.7878697192      11.8480493901
Ga       5.0596194261      10.7048600653      11.8415290556
O       -0.0008586623      -0.0017349369       3.1506402065
O       -1.6871295917       2.9190868836       3.1535743518
O       -3.3735016732       5.8398492436       3.1506263188
O       -5.0573537397       8.7595903911       3.1557670685
O        3.3724284438      -0.0017281043       3.1506390103
O        1.6857889747       2.9189956520       3.1570344956
O       -0.0007484007       5.8401595032       3.1570302128
O       -1.6868528615       8.7612064057       3.1506303223
O        6.7438116097       0.0003914356       3.1515419509
O        5.0586982349       2.9190874528       3.1535746751
O        3.3723233054       5.8401617676       3.1570404273
O        1.6857854352       8.7611423173       3.1535770794
O       10.1140322271       0.0003883266       3.1515442016
O        8.4289167314       2.9190793138       3.1515340952
O        6.7450631708       5.8398455758       3.1506391258
O        5.0584189410       8.7612018909       3.1506448953
O        1.6857901922       0.9768489413      11.8774231537
O        0.1116483984       3.9576143604      12.1009100187
O       -1.6827150902       6.8112421768      11.8774072818
O       -3.3726467952       9.7322561121      11.8747298624
O        5.0505135968       0.9805708804      11.8719427796
O        3.2599240149       3.9576340482      12.1009137144
O        1.6857863149       6.6840898926      12.1009222280
O        0.0028865874       9.7233191729      11.8719417355
O        8.4289227537       0.9732874387      11.8797083642
O        6.7334122504       3.8954288840      11.8719432478
O        5.0542750346       6.8112462399      11.8774195204
O        3.3686841075       9.7233175422      11.8719420754
O       11.8073268126       0.9805700633      11.8719469634
O       10.1244227678       3.8954272959      11.8719450438
O        8.4289203041       6.8142579849      11.8747390555
O        6.7442186804       9.7322553287      11.8747381309
O        0.0030419670       1.9485908135      20.5859728186
O       -1.6825173416       4.8680685552      20.5859776631
O       -3.3717584991       7.7864132657      20.5962894397
O       -5.0573486822      10.7059440106      20.5962875838
O        3.3685230689       1.9485924949      20.5859704783
O        1.6857848829       4.8664396267      20.5913802513
O        0.0002248427       7.7826589175      20.5859778434
O       -1.6862059966      10.7059231564      20.5944389587
O        6.7398540300       1.9484705482      20.5894810114
O        5.0540823509       4.8680688810      20.5859701906
O        3.3713444582       7.7826603166      20.5859732044
O        1.6857818379      10.7023780526      20.5894842639
O       10.1179824872       1.9484696568      20.5894827053
O        8.4289192801       4.8669256677      20.5944374486
O        6.7433275046       7.7864119759      20.5962896489
O        5.0577727546      10.7059229568      20.5944345775
O       -0.0009937268       0.0142097556       7.7135750761
O       -1.7101999951       2.9057678382       7.6797276020
O       -3.3597538486       5.8317559083       7.7135797458
O       -5.0573515732       8.7595937863       7.7021649774
O        3.3725667172       0.0142074011       7.7135720017
O        1.6858014315       2.8950441910       7.6523059710
O       -0.0214868911       5.8521394201       7.6523106100
O       -1.6729728368       8.7533479807       7.7135830830
O        6.7403726974      -0.0015975338       7.7008470239
O        5.0817844288       2.9057618993       7.6797140440
O        3.3930796786       5.8521349641       7.6523002337
O        1.6857888743       8.7877935605       7.6797204958
O       10.1174783984      -0.0015985424       7.7008487573
O        8.4289247227       2.9230575820       7.7008452444
O        6.7313405535       5.8317596778       7.7135622891
O        5.0445493860       8.7533539179       7.7135763932
O        1.6857848906       0.9764163418      16.4282086448
O        0.0104084448       3.8991701510      16.3790585541
O       -1.6830825847       6.8114544311      16.4282141777
O       -3.3693309791       9.7341662746      16.4219750835
O        5.0554455435       0.9757539014      16.4227159395
O        3.3611612054       3.8991710516      16.3790581488
O        1.6857807203       6.8009973294      16.3790463531
O        0.0011793776       9.7299909365      16.4227117883
O        8.4289195904       0.9732869891      16.4207415246
O        6.7400475361       3.8935700614      16.4227149174
O        5.0546437224       6.8114538638      16.4282114364
O        3.3703857531       9.7300009161      16.4227135404
O       11.8023898799       0.9757510644      16.4227147881
O       10.1177923496       3.8935705512      16.4227120575
O        8.4289217622       6.8104353626      16.4219747576
O        6.7409000010       9.7341681232      16.4219748410
O       -0.0002449905       1.9469389444      25.1481700095
O       -1.6855910509       4.8660479661      25.1481750559
O       -3.3707678215       7.7858432336      25.1479634377
O       -5.0573502888      10.7070881154      25.1479606659
O        3.3718140226       1.9469430673      25.1481696846
O        1.6857891004       4.8664399033      25.1476510853
O        0.0004390400       7.7863299713      25.1481733991
O       -1.6854315518      10.7063731463      25.1477214411
O        6.7430842136       1.9466043531      25.1470447421
O        5.0571552179       4.8660437885      25.1481707370
O        3.3711301257       7.7863292583      25.1481694634
O        1.6857869144      10.7061079855      25.1470428335
O       10.1147539079       1.9466030770      25.1470474300
O        8.4289180982       4.8660280256      25.1477213028
O        6.7423337030       7.7858423662      25.1479583283
O        5.0569996918      10.7063705396      25.1477195732
O        0.0016944981      -0.0024377368      18.5948663711
O       -1.6758811482       2.9255747822      18.5832296301
O       -3.3728332793       5.8424153866      18.5948643863
O       -5.0573535065       8.7595952149      18.5941799864
O        3.3698692515      -0.0024415865      18.5948629169
O        1.6857801456       2.9325130183      18.5767545669
O        0.0109511965       5.8334043023      18.5767597900
O       -1.6887476011       8.7593449196      18.5948642678
O        6.7424248741      -0.0004116895      18.5917743496
O        5.0474420785       2.9255823733      18.5832315451
O        3.3606111214       5.8334093979      18.5767572959
O        1.6857863995       8.7481537737      18.5832273212
O       10.1154176688      -0.0004109143      18.5917757659
O        8.4289212676       2.9206857649      18.5917725430
O        6.7444019298       5.8424164691      18.5948648095
O        5.0603113496       8.7593464150      18.5948643291
O        1.6857885632       0.9749990605       1.1439632769
O        0.0008931936       3.8936750289       1.1440701994
O       -1.6843039706       6.8121589833       1.1439711448
O       -3.3724150896       9.7323847575       1.1442711478
O        5.0572012783       0.9739012647       1.1437740374
O        3.3706720963       3.8936679231       1.1440655217
O        1.6857802462       6.8119767084       1.1440681150
O        0.0004484718       9.7324369723       1.1437761855
O        8.4289206393       0.9732918257       1.1436498885
O        6.7425273496       3.8929727368       1.1437764271
O        5.0558682537       6.8121541663       1.1439646217
O        3.3711131925       9.7324407268       1.1437725107
O       11.8006391136       0.9739033046       1.1437760091
O       10.1153147656       3.8929797171       1.1437805264
O        8.4289290617       6.8139928301       1.1442737248
O        6.7439870421       9.7323928423       1.1442695746
O        0.0056727968       2.0170581769       9.8840083579
O       -1.6218974413       4.8360919665       9.8840082226
O       -3.3646701046       7.7823285022       9.8705575025
O       -5.0573401421      10.7141418648       9.8705641912
O        3.3659117209       2.0170601368       9.8840117163
O        1.6857986110       4.8664415266       9.7070257873
O        0.0582363093       7.7461533247       9.8840131346
O       -1.6852007487      10.7065052204       9.8714588290
O        6.7432050748       1.9465356337       9.8689177546
O        4.9934921769       4.8361137527       9.8840040828
O        3.3133621579       7.7461554827       9.8840082374
O        1.6857838506      10.7062407123       9.8689201836
O       10.1146379471       1.9465357646       9.8689163683
O        8.4289208402       4.8657590619       9.8714539474
O        6.7362395634       7.7823167959       9.8705569583
O        5.0567693135      10.7065056001       9.8714579508
O       -0.0006685022       0.0021771382      22.5819095704
O       -1.6844294982       2.9206439994      22.5790247780
O       -3.3700189681       5.8380587582      22.5819084833
O       -5.0573529179       8.7595906939      22.5839979678
O        3.3722363972       0.0021792271      22.5819064902
O        1.6857832393       2.9200554965      22.5809978241
O        0.0001648272       5.8396303162      22.5810016109
O       -1.6835639674       8.7590799811      22.5819075127
O        6.7442972855       0.0006731324      22.5791307811
O        5.0559935312       2.9206490452      22.5790250885
O        3.3714005085       5.8396309944      22.5809994686
O        1.6857846575       8.7580232505      22.5790174980
O       10.1135441498       0.0006711686      22.5791351510
O        8.4289172326       2.9185241217      22.5791339382
O        6.7415834816       5.8380593847      22.5819046443
O        5.0551311243       8.7590797748      22.5819068663
O        1.6857892944       0.9612022828       5.1288930325
O       -0.0045479848       3.8905265118       5.1314028996
O       -1.6962499655       6.8190579892       5.1289044477
O       -3.3701399985       9.7336992198       5.1433240192
O        5.0560377091       0.9686891404       5.1341046722
O        3.3761218580       3.8905199512       5.1313927877
O        1.6857812561       6.8182734850       5.1313970035
O       -0.0046363733       9.7340329361       5.1341109051
O        8.4289222085       0.9732879537       5.1384091772
O        6.7464585494       3.8965847074       5.1341082470
O        5.0678225029       6.8190587322       5.1288914671
O        3.3762039668       9.7340332709       5.1341089905
O       11.8018061947       0.9686979512       5.1341123810
O       10.1113904384       3.8965890335       5.1341181502
O        8.4289280902       6.8113699685       5.1433251540
O        6.7417128574       9.7337019284       5.1433229106
O       -0.0123258878       1.8923022727      13.8589484560
O       -1.7389862993       4.8829556881      13.8589313269
O       -3.3745506412       7.7880269992      13.8545212491
O       -5.0573449148      10.7027884892      13.8545319830
O        3.3838998654       1.8923234713      13.8589485309
O       -0.0409055540       7.8241133871      13.8589369330
O       -1.6955457702      10.7005430813      13.8410427016
O        6.7409121334       1.9478622349      13.8573227059
O        5.1105724527       4.8829678789      13.8589320095
O        3.4124226685       7.8241316369      13.8589497282
O        1.6857770114      10.7035943482      13.8573221270
O       10.1169237074       1.9478614410      13.8573220784
O        8.4289179080       4.8777074427      13.8410385974
O        6.7460983037       7.7880173084      13.8545210466
O        5.0671132042      10.7005337367      13.8410411813
