      21
 i =       18, E =      -767.2482153427
 Ga        -0.0001206655       -0.0000169595        5.5816679499
 Zn         0.0000735530        0.0002034968       20.4081602595
 Ga         1.6491939639        0.9523501467       14.2820153983
 Zn         1.6494929357        0.9523713225        3.0075297047
 Ga        -0.0001070339        1.9046694263       22.9823314468
 Zn        -0.0000638494        1.9045703104       11.7078116382
 In        -0.0004406698       -0.0002860792       -0.0510111921
 In         1.6490884221        0.9522615390        8.6493355614
 In        -0.0000101700        1.9050864775       17.3495423547
  O        -0.0002706232        0.0000226530        3.5863259701
  O        -0.0001428457       -0.0000399161       22.9637104716
  O         1.6494740563        0.9519356054       12.2864415428
  O         1.6493436641        0.9523442688        5.5630431450
  O        -0.0001681398        1.9049430803       20.9869545841
  O         0.0002341171        1.9047357500       14.2633778682
  O        -0.0004382951       -0.0000090800        7.5518884676
  O        -0.0001561045        0.0003245223       18.4344978228
  O         1.6494576808        0.9526434843       16.2522891163
  O         1.6490109466        0.9520841392        1.0338603126
  O        -0.0004369607        1.9045269810       24.9525853374
  O        -0.0004571282        1.9047445209        9.7341396632