      21
 i =       24, E =      -767.1662068109
 Ga        -0.0000921659        0.0000607759        5.6151809306
 Zn        -0.0026746991        0.0012530940       20.5967808176
 Ga         1.6493642478        0.9523926200       14.4084311823
 Zn         1.6490630243        0.9525037505        3.0206820774
 Zn         0.0008018385        1.9042579516       23.0637038143
 Ga         0.0002087900        1.9045062527       11.7038454296
 In        -0.0003603985        0.0002030805       -0.0162895119
 In         1.6491096714        0.9524248670        8.6368392022
 In         0.0022669490        1.9028398667       17.5648672153
  O        -0.0002843717        0.0000210580        3.7126180363
  O        -0.0004687113        0.0001713939       22.6664334088
  O         1.6499793876        0.9519120449       12.0155758481
  O         1.6493604925        0.9521906952        5.7928127979
  O         0.0026943452        1.9030480016       20.3536302143
  O        -0.0003956769        1.9046099996       13.8457064319
  O        -0.0000939646        0.0003121671        7.6729355187
  O         0.0022272501       -0.0017113796       18.3209319992
  O         1.6505411137        0.9517518819       16.1921098378
  O         1.6493990943        0.9525422926        1.1378646107
  O        -0.0003498100        1.9049928560       25.0804981313
  O        -0.0004867091        1.9048881945        9.8346101826