      21
 i =       27, E =      -767.1698950020
 Ga        -0.0001635927        0.0000854900        5.7641986631
 Ga        -0.0000167469       -0.0000205914       20.5168853784
 Zn         1.6501501788        0.9519469451       14.4334184433
 Ga         1.6497730450        0.9521914895        3.0431602559
 Zn        -0.0000101848        1.9045235290       23.0204844408
 Zn        -0.0026483852        1.9063317621       11.9663952290
 In        -0.0004515898        0.0002954173       -0.0453711764
 In         1.6515921388        0.9511288495        8.9224091014
 In        -0.0002744191        1.9049126260       17.4593391294
  O         0.0005432716       -0.0003354439        3.3706153001
  O        -0.0000421404       -0.0000993865       22.5939246106
  O         1.6515123876        0.9510642668       11.7252488265
  O         1.6491173985        0.9526149822        5.2036512440
  O        -0.0000587179        1.9047218672       20.6730774886
  O        -0.0003394640        1.9048699080       14.0632250612
  O         0.0011902452       -0.0006805205        7.5494642599
  O        -0.0001767433       -0.0000231955       18.6256261252
  O         1.6491834884        0.9524427871       16.4734697200
  O         1.6487660215        0.9527443667        1.1689356132
  O        -0.0004120975        1.9049254386       25.0754483964
  O         0.0022508104        1.9034168842        9.6828437711