335
i =       11, E =    -12260.0661739410
Zn      -0.0002044760      -0.0017234545       5.6903193830
Zn      -1.6991422379       2.9121528533       5.6388749312
Zn      -3.3731610663       5.8404123345       5.6903207174
Zn      -5.0573509857       8.7595908744       5.6903842791
Zn       3.3717735459      -0.0017247548       5.6903196785
Zn       1.6857851450       2.9238691792       5.6903207532
Zn       0.0034775040       5.8377220604       5.6903285060
Zn      -1.6871730760       8.7606268294       5.6903222631
Zn       6.7444301035       0.0007459583       5.6859212213
Zn       5.0707141563       2.9121489649       5.6388753147
Zn       3.3680971928       5.8377238510       5.6903250654
Zn       1.6857866018       8.7750189043       5.6388840595
Zn      10.1134124111       0.0007479576       5.6859217382
Zn       8.4289218059       2.9183699198       5.6859188484
Zn       6.7447312547       5.8404107221       5.6903192102
Zn       5.0587428023       8.7606295677       5.6903228001
Zn       1.6857887730       0.9804327243      14.4250805105
Zn      -0.0522234903       3.8629755652      14.5399944168
Zn      -1.6795998878       6.8094384385      14.4250843860
Zn      -3.3719654546       9.7326469701      14.4230961949
Zn       5.0565948871       0.9749059570      14.4205440342
Zn       3.4238020638       3.8630198233      14.5399932061
Zn       1.6857411705       6.8733223180      14.5399936088
Zn       0.0010210194       9.7314282434      14.4205449768
Zn       8.4289185066       0.9732888797      14.4224841199
Zn       6.7413624017       3.8929982535      14.4205442988
Zn       5.0511598563       6.8094435786      14.4250853891
Zn       3.3705430697       9.7314120075      14.4205447538
Zn      11.8012410708       0.9749026185      14.4205475394
Zn      10.1164797509       3.8929974886      14.4205434918
Zn       8.4289204964       6.8134754538      14.4230974127
Zn       6.7435320731       9.7326484111      14.4231008743
Zn      -0.0010506113       1.9454330219      23.1481225530
Zn      -1.6872992155       4.8661023524      23.1481221172
Zn      -3.3723485536       7.7867501767      23.1477617833
Zn      -5.0573525078      10.7052689606      23.1477603694
Zn       3.3726165773       1.9454336234      23.1481215542
Zn       1.6857835654       4.8664391494      23.1495580703
Zn      -0.0004663776       7.7877835554      23.1481238121
Zn      -1.6852333723      10.7064853462      23.1480434192
Zn       6.7442424347       1.9459371919      23.1467408335
Zn       5.0588667820       4.8661021552      23.1481233663
Zn       3.3720337503       7.7877811926      23.1481230232
Zn       1.6857831977      10.7074445735      23.1467398380
Zn      10.1135971935       1.9459367092      23.1467376244
Zn       8.4289190003       4.8658021196      23.1480436722
Zn       6.7439135459       7.7867500768      23.1477627325
Zn       5.0568010974      10.7064832733      23.1480419528
In       0.0004766031      -0.0002635719       0.0489928234
In      -1.6857434199       2.9198882619       0.0450998762
In      -3.3715553309       5.8402736911       0.0489909396
In      -5.0573533129       8.7595901811       0.0506366744
In       3.3710867829      -0.0002623717       0.0489917711
In       1.6857830832       2.9194725963       0.0468804207
In      -0.0003375872       5.8399225114       0.0468807073
In      -1.6862500576       8.7593038189       0.0489922129
In       6.7434698528       0.0001917668       0.0490582936
In       5.0573060869       2.9198880558       0.0451017483
In       3.3719041365       5.8399195490       0.0468783797
In       1.6857822878       8.7595408876       0.0451038450
In      10.1143669499       0.0001940917       0.0490587568
In       8.4289181220       2.9194749194       0.0490597242
In       6.7431204507       5.8402732408       0.0489910692
In       5.0578166865       8.7593045426       0.0489886362
In       1.6857875531       0.9612709832       8.7843175401
In      -0.1180329033       3.8249945711       8.6795676278
In      -1.6961722634       6.8190173664       8.7843303725
In      -3.3750768749       9.7308449370       8.7691827055
In       5.0746134931       0.9517576662       8.7678741666
In       3.4896167010       3.8249911411       8.6795667028
In       1.6858013804       6.9493273243       8.6795953403
In      -0.0100031558       9.7585923651       8.7678751662
In       8.4289243454       0.9732911735       8.7780316956
In       6.7704139619       3.8889644260       8.7678742380
In       5.0677597624       6.8190165655       8.7843229857
In       3.3815919010       9.7585940676       8.7678786332
In      11.7832327915       0.9517620494       8.7678731670
In      10.0874376094       3.8889685686       8.7678720088
In       8.4289257311       6.8170706504       8.7691771053
In       6.7466540044       9.7308478361       8.7691779938
In      -0.0019899240       1.9358145120      17.5355131588
In      -1.6960984024       4.8700983528      17.5355048529
In      -3.3731708018       7.7872280359      17.5003586472
In      -5.0573531881      10.7043188449      17.5003531360
In       3.3735541098       1.9358173897      17.5355064850
In       1.6857801406       4.8664407742      17.5590659918
In      -0.0083282161       7.7934062076      17.5355165970
In      -1.6847956220      10.7067388194      17.4988609390
In       6.7437641976       1.9462115104      17.5018827813
In       5.0676617973       4.8700980925      17.5355119771
In       3.3798890880       7.7934071778      17.5355074126
In       1.6857808788      10.7068954635      17.5018867117
In      10.1140724233       1.9462107322      17.5018879620
In       8.4289176981       4.8652955320      17.4988618245
In       6.7447359092       7.7872283955      17.5003545341
In       5.0563612026      10.7067375688      17.4988636006
Ga      -0.0001124443      -0.0015352224      20.5816305168
Ga      -1.6878450809       2.9186748740      20.5823460282
Ga      -3.3729557919       5.8403988995      20.5816278984
Ga      -5.0573529224       8.7595913571      20.5772039563
Ga       3.3716816618      -0.0015349648      20.5816277241
Ga       1.6857834502       2.9182132611      20.5882533882
Ga      -0.0014330415       5.8405526846      20.5882555368
Ga      -1.6870589198       8.7604576326      20.5816286619
Ga       6.7432446593       0.0000623747      20.5777137859
Ga       5.0594146446       2.9186716433      20.5823466473
Ga       3.3729966401       5.8405517250      20.5882557903
Ga       1.6857814597       8.7619722368      20.5823496126
Ga      10.1145942739       0.0000640165      20.5777165811
Ga       8.4289197970       2.9197356975      20.5777149811
Ga       6.7445233395       5.8403966708      20.5816288890
Ga       5.0586250610       8.7604570210      20.5816298131
Ga       1.6857837942       0.9738802615       3.1224908518
Ga       0.0015508467       3.8940465267       3.1192767794
Ga      -1.6852691962       6.8127177433       3.1224920002
Ga      -3.3725482562       9.7323128417       3.1235482646
Ga       5.0566204940       0.9705415945       3.1194196440
Ga       3.3700156604       3.8940477747       3.1192787225
Ga       1.6857849826       6.8112249137       3.1192783660
Ga      -0.0027460553       9.7336188280       3.1194207135
Ga       8.4289199849       0.9732874498       3.1215639392
Ga       6.7451470039       3.8951574616       3.1194205061
Ga       5.0568381808       6.8127183813       3.1224918589
Ga       3.3743133258       9.7336167830       3.1194205363
Ga      11.8012215686       0.9705415041       3.1194182106
Ga      10.1126898627       3.8951594842       3.1194187834
Ga       8.4289203252       6.8141469804       3.1235485424
Ga       6.7441165557       9.7323124298       3.1235483031
Ga       0.0091808619       1.9587261352      11.8366185393
Ga      -1.6706650480       4.8683101952      11.8366177737
Ga      -3.3725997990       7.7868984846      11.8512857768
Ga      -5.0573513556      10.7049702389      11.8512899751
Ga       3.3623731661       1.9587249196      11.8366215994
Ga       1.6857848600       4.8664366689      12.2091542947
Ga       0.0059329893       7.7722847788      11.8366167036
Ga      -1.6870130315      10.7054603057      11.8527999766
Ga       6.7417576285       1.9473716513      11.8508292417
Ga       5.0422393213       4.8683281827      11.8366157318
Ga       3.3656343106       7.7722706049      11.8366272373
Ga       1.6857853972      10.7045805597      11.8508299454
Ga      10.1160784282       1.9473685466      11.8508295200
Ga       8.4289208064       4.8678577023      11.8527988068
Ga       6.7441715911       7.7869013252      11.8512881082
Ga       5.0585805247      10.7054564817      11.8528011082
O        0.0051649469       0.0004671132       3.1561822426
O       -1.6813657109       2.9224146095       3.1642256174
O       -3.3685781427       5.8439674963       3.1561798067
O       -5.0573512352       8.7595896641       3.1543626660
O        3.3664025902       0.0004677893       3.1561805049
O        1.6857836102       2.9228942344       3.1615000777
O        0.0026272256       5.8382105246       3.1614979926
O       -1.6879589599       8.7548814403       3.1561824395
O        6.7438991251       0.0004392857       3.1511818042
O        5.0529323341       2.9224136006       3.1642257611
O        3.3689438953       5.8382119958       3.1614994080
O        1.6857844077       8.7544918717       3.1642202494
O       10.1139415129       0.0004395298       3.1511814767
O        8.4289197260       2.9189834407       3.1511793144
O        6.7401470820       5.8439651059       3.1561766225
O        5.0595289950       8.7548812514       3.1561795549
O        1.6857818544       0.9797483527      11.8531903554
O        0.1111422742       3.9573076005      11.6949455091
O       -1.6801745908       6.8097779531      11.8531249999
O       -3.3727147992       9.7322161768      11.8752254406
O        5.0440912626       0.9811480703      11.8696654972
O        3.2604294614       3.9573089026      11.6949414139
O        1.6857952114       6.6846721129      11.6949387914
O        0.0001774585       9.7174803684      11.8696664398
O        8.4289174678       0.9732924355      11.8725262333
O        6.7297070172       3.9007049282      11.8696684547
O        5.0517546021       6.8097825594      11.8531605678
O        3.3713938985       9.7174727495      11.8696693432
O       11.8137405590       0.9811405929      11.8696649357
O       10.1281393542       3.9007030496      11.8696664160
O        8.4289215127       6.8143394184      11.8752241939
O        6.7442837451       9.7322161311      11.8752250816
O       -0.0012751675       1.9447962156      20.5969392028
O       -1.6879652139       4.8662260814      20.5969430982
O       -3.3716481082       7.7863479661      20.5978694281
O       -5.0573512908      10.7060743406      20.5978702018
O        3.3728409760       1.9447949749      20.5969411298
O        1.6857816783       4.8664399211      20.5954189140
O       -0.0009080100       7.7882966585      20.5969408204
O       -1.6855338174      10.7063116631      20.5976209411
O        6.7455434270       1.9451843455      20.5983760696
O        5.0595323635       4.8662265843      20.5969379270
O        3.3724725307       7.7882956754      20.5969389615
O        1.6857830932      10.7089463713      20.5983749333
O       10.1122987155       1.9451859473      20.5983740566
O        8.4289205118       4.8661495843      20.5976193284
O        6.7432155504       7.7863477401      20.5978647809
O        5.0571014155      10.7063097067      20.5976189000
O        0.0030467835       0.0087160201       7.6996715038
O       -1.7438568520       2.8863268642       7.6525721653
O       -3.3624920690       5.8380056258       7.6996729657
O       -5.0573489508       8.7595895189       7.6977436888
O        3.3685326907       0.0087031870       7.6996712169
O        1.6857876019       3.0056550661       7.7698009198
O        0.0743405587       5.7968224544       7.7698206012
O       -1.6797478135       8.7525959101       7.6996768392
O        6.7478546077       0.0027213542       7.6931866568
O        5.1154401737       2.8863251100       7.6525710816
O        3.2972684712       5.7968246296       7.7698156408
O        1.6858032925       8.8266598743       7.6525839773
O       10.1099929892       0.0027246515       7.6931868619
O        8.4289253780       2.9144211304       7.6931848261
O        6.7340765826       5.8380021105       7.6996707837
O        5.0513300668       8.7525923889       7.6996731560
O        1.6857815555       0.9819540190      16.4187637181
O       -0.0043194584       3.8906559483      16.4852354434
O       -1.6782794779       6.8086833649      16.4187627115
O       -3.3712748857       9.7330469215      16.4183603568
O        5.0501810550       0.9776175551      16.4166716403
O        3.3758833604       3.8906611684      16.4852365669
O        1.6857781705       6.8180032429      16.4852367743
O        0.0001655970       9.7245071141      16.4166725839
O        8.4289199274       0.9732886238      16.4187522082
O        6.7358008024       3.8971952997      16.4166724916
O        5.0498448343       6.8086836701      16.4187645543
O        3.3713990928       9.7245081761      16.4166747406
O       11.8076528439       0.9776168168      16.4166770106
O       10.1220343129       3.8971904796      16.4166734549
O        8.4289213487       6.8126777096      16.4183610006
O        6.7428428277       9.7330472759      16.4183638258
O        0.0000982036       1.9466465001      25.1483488955
O       -1.6856724758       4.8664887003      25.1483491222
O       -3.3716295459       7.7863375012      25.1492955028
O       -5.0573527776      10.7060978315      25.1492945681
O        3.3714670920       1.9466446649      25.1483496009
O        1.6857814183       4.8664376341      25.1490378016
O        0.0000128026       7.7861806802      25.1483493663
O       -1.6853073593      10.7064428931      25.1496858914
O        6.7428139375       1.9467604944      25.1483239130
O        5.0572406980       4.8664886497      25.1483492695
O        3.3715532487       7.7861802573      25.1483484268
O        1.6857839855      10.7057957224      25.1483237211
O       10.1150223938       1.9467603521      25.1483239179
O        8.4289184239       4.8658847997      25.1496859986
O        6.7431958857       7.7863367013      25.1492947875
O        5.0568711599      10.7064426973      25.1496836707
O        0.0007012388      -0.0069189769      18.5937744296
O       -1.6941545499       2.9150354451      18.5999338490
O       -3.3772123233       5.8437932039      18.5937711304
O       -5.0573542671       8.7595918589      18.5900592817
O        3.3708656971      -0.0069166444      18.5937711603
O        1.6857851066       2.9117647009      18.6067334729
O       -0.0070195130       5.8437781143      18.6067339972
O       -1.6921310365       8.7624449038      18.5937731234
O        6.7412451249      -0.0010898181      18.5881385357
O        5.0657189031       2.9150319939      18.5999339853
O        3.3785800268       5.8437778422      18.6067337575
O        1.6857817203       8.7692521698      18.5999357251
O       10.1165924425      -0.0010910581      18.5881415193
O        8.4289185306       2.9220451551      18.5881392900
O        6.7487762323       5.8437946255      18.5937726739
O        5.0636926804       8.7624403268      18.5937745068
O        1.6857826467       0.9763274541       1.1450569846
O        0.0001625022       3.8932457270       1.1452243307
O       -1.6831491593       6.8114922353       1.1450574801
O       -3.3705582791       9.7334619726       1.1457924480
O        5.0563024331       0.9752482103       1.1455857355
O        3.3714028692       3.8932449686       1.1452268506
O        1.6857841671       6.8128255724       1.1452252643
O        0.0011730862       9.7309908058       1.1455853252
O        8.4289183376       0.9732878510       1.1429012297
O        6.7409129174       3.8930781650       1.1455856763
O        5.0547172487       6.8114945677       1.1450569524
O        3.3703939251       9.7309911233       1.1455835391
O       11.8015343497       0.9752483956       1.1455852801
O       10.1169236731       3.8930785347       1.1455859108
O        8.4289183036       6.8118460804       1.1457925969
O        6.7421247501       9.7334598641       1.1457923654
O       -0.0100867616       1.9584798660       9.8442246047
O       -1.6805083316       4.8517401457       9.8442144055
O       -3.3720385108       7.7865749059       9.8692209582
O       -5.0573496771      10.7056211798       9.8692253533
O        3.3816563492       1.9584738798       9.8442169461
O        0.0153697102       7.7890980498       9.8442312236
O       -1.6890566579      10.7042732091       9.8701578888
O        6.7409129420       1.9478579527       9.8682356330
O        5.0520909815       4.8517411357       9.8442207867
O        3.3562250333       7.7890958704       9.8442351968
O        1.6857894383      10.7036015333       9.8682397884
O       10.1169327950       1.9478624150       9.8682354977
O        8.4289234670       4.8702231629       9.8701555422
O        6.7436127077       7.7865732537       9.8692223077
O        5.0606362666      10.7042762846       9.8701565154
O        0.0001550073      -0.0001844653      22.5851721946
O       -1.6855284983       2.9200107640      22.5845854101
O       -3.3716523189       5.8399561903      22.5851742636
O       -5.0573545861       8.7595887957      22.5831308093
O        3.3714133976      -0.0001835940      22.5851740332
O        1.6857829986       2.9201137989      22.5865719941
O        0.0002167306       5.8396018873      22.5865721580
O       -1.6860229152       8.7595487360      22.5851744314
O        6.7424825803      -0.0003768140      22.5839377445
O        5.0570963944       2.9200119839      22.5845820793
O        3.3713515433       5.8396006082      22.5865729065
O        1.6857829987       8.7592948173      22.5845833619
O       10.1153550359      -0.0003767548      22.5839355942
O        8.4289192489       2.9206149716      22.5839334470
O        6.7432168484       5.8399547876      22.5851758443
O        5.0575906392       8.7595466390      22.5851760614
O        1.6857848522       0.9875640134       5.1508735046
O        0.0036446972       3.8952560049       5.1540282563
O       -1.6734103795       6.8058698750       5.1508787558
O       -3.3714249474       9.7329559944       5.1381569757
O        5.0564088852       0.9645498178       5.1270752337
O        3.3679235520       3.8952559151       5.1540271991
O        1.6857866699       6.8088107077       5.1540263044
O       -0.0080375949       9.7364255632       5.1270823487
O        8.4289194954       0.9732880157       5.1345082929
O        6.7502291329       3.8983377212       5.1270756208
O        5.0449867722       6.8058758540       5.1508778361
O        3.3796074943       9.7364265048       5.1270775752
O       11.8014342603       0.9645530239       5.1270767465
O       10.1076101024       3.8983405997       5.1270759570
O        8.4289212135       6.8128500303       5.1381579077
O        6.7429961683       9.7329584901       5.1381569386
O        0.0056480138       1.9938859175      13.8221339699
O       -1.6419670499       4.8476819535      13.8221327150
O       -3.3592742032       7.7792035379      13.8535888959
O       -5.0573540341      10.7203466319      13.8536093340
O        3.3659086801       1.9939091131      13.8221373929
O        1.6857765110       4.8664390098      14.0716190944
O        0.0381413519       7.7577497350      13.8221226431
O       -1.6827008437      10.7079497367      13.8518971385
O        6.7396643229       1.9485803652      13.8509992858
O        5.0135401094       4.8476832522      13.8221301105
O        3.3334005634       7.7577353748      13.8221353974
O        1.6857834940      10.7021628126      13.8509949213
O       10.1181725783       1.9485794574      13.8509959844
O        8.4289218500       4.8628808741      13.8518998871
O        6.7308466786       7.7792084145      13.8535998450
O        5.0542664609      10.7079449050      13.8519044300
