     335
 i =        1, E =    -12260.0211586236
 Zn        -0.0002395121        0.0008060285        5.6947271921
 Zn        -1.6858278085        2.9198758910        5.6950564617
 Zn        -3.3709087121        5.8391727630        5.6946044036
 Zn        -5.0570543519        8.7597760553        5.6979586206
 Zn         3.3714502471        0.0001037430        5.6963604612
 Zn         1.6849384021        2.9195217210        5.6945617607
 Zn        -0.0006199169        5.8392143963        5.6947180434
 Zn        -1.6859121253        8.7594054839        5.6963425329
 Zn         6.7432965185        0.0001153600        5.6962581799
 Zn         5.0573806443        2.9195049384        5.6979540197
 Zn         3.3712072641        5.8394327307        5.6990392494
 Zn         1.6853990662        8.7598266507        5.6980235247
 Zn        10.1149133566        0.0008441445        5.6945723650
 Zn         8.4296288960        2.9194872514        5.6947438506
 Zn         6.7434893617        5.8395405544        5.6992162374
 Zn         5.0573765075        8.7602154512        5.6991407036
 Zn         1.6862844383        0.9729885898       14.4221360546
 Zn        -0.0002532515        3.8928741806       14.4222696628
 Zn        -1.6856850513        6.8134973096       14.4220728161
 Zn        -3.3703052771        9.7335260813       14.4230099751
 Zn         5.0573712249        0.9719287593       14.4229406635
 Zn         3.3718370492        3.8940154328       14.4203391553
 Zn         1.6866969722        6.8126258684       14.4204587870
 Zn        -0.0013451032        9.7335107041       14.4227567161
 Zn         8.4282817491        0.9729393472       14.4222837819
 Zn         6.7428820701        3.8941833439       14.4203932437
 Zn         5.0573393784        6.8131990730       14.4486101187
 Zn         3.3723777713        9.7321995506       14.4203167049
 Zn        11.8004275786        0.9738657124       14.4222801380
 Zn        10.1151049188        3.8928547593       14.4222641954
 Zn         8.4280516343        6.8127820851       14.4204898107
 Zn         6.7424375865        9.7321482472       14.4204398087
 Zn        -0.0000192121        1.9464940720       23.1467671978
 Zn        -1.6858164005        4.8664440822       23.1468050100
 Zn        -3.3713324787        7.7863952796       23.1468337745
 Zn        -5.0572084443       10.7062995947       23.1466688163
 Zn         3.3715665619        1.9464447064       23.1467455347
 Zn         1.6857388825        4.8663757657       23.1468921774
 Zn        -0.0001960177        7.7863369958       23.1468901838
 Zn        -1.6858185304       10.7061893338       23.1466405210
 Zn         6.7431919350        1.9463560048       23.1468174112
 Zn         5.0573042899        4.8663296187       23.1470180342
 Zn         3.3714592725        7.7864256725       23.1471573200
 Zn         1.6855891723       10.7062425098       23.1468348194
 Zn        10.1147224753        1.9464964404       23.1468370629
 Zn         8.4290504960        4.8664552280       23.1468524472
 Zn         6.7431068994        7.7863937657       23.1468852941
 Zn         5.0572999397       10.7063374936       23.1469776747
 In        -0.0000652073        0.0002553974        0.0520276918
 In        -1.6857001169        2.9197776740        0.0521338398
 In        -3.3713581657        5.8398063050        0.0520205822
 In        -5.0571787250        8.7596040962        0.0521207907
 In         3.3715129292        0.0000821869        0.0522549438
 In         1.6857585585        2.9197801698        0.0520658286
 In        -0.0001491671        5.8396355856        0.0521212947
 In        -1.6858182172        8.7595126327        0.0520676251
 In         6.7431133871       -0.0001016684        0.0521471306
 In         5.0572257079        2.9197525354        0.0519060679
 In         3.3715634567        5.8397108436        0.0518515082
 In         1.6857440861        8.7596525936        0.0518681642
 In        10.1147769386        0.0001004596        0.0520157076
 In         8.4290652653        2.9198018973        0.0519978589
 In         6.7431459189        5.8396371595        0.0518976571
 In         5.0573873993        8.7596697511        0.0518144449
 In         1.6857761883        0.9731239899        8.7744220508
 In        -0.0016055096        3.8922462976        8.7751281527
 In        -1.6856558690        6.8131153931        8.7743853321
 In        -3.3694898281        9.7340713027        8.7736852098
 In         5.0574540559        0.9709263136        8.7735460253
 In         3.3649595844        3.8889688726        8.7689812772
 In         1.6788329253        6.8093630976        8.7688957994
 In        -0.0020022245        9.7341012316        8.7737255498
 In         8.4287723443        0.9732222409        8.7744785283
 In         6.7497670587        3.8888776837        8.7688377915
 In         5.0573859232        6.8131248298        8.7306002932
 In         3.3711894588        9.7407002993        8.7689056242
 In        11.8005872078        0.9750568949        8.7750169519
 In        10.1162785061        3.8921756392        8.7751299271
 In         8.4357856180        6.8093236350        8.7688494271
 In         6.7434971526        9.7407832382        8.7687850385
 In        -0.0002377153        1.9466054588       17.5049773407
 In        -1.6857591069        4.8662168821       17.5049735573
 In        -3.3704272177        7.7869114115       17.5056034446
 In        -5.0562583831       10.7069372185       17.5056080329
 In         3.3714503159        1.9452462820       17.5057665077
 In         1.6845609857        4.8657642633       17.5068593424
 In        -0.0011043359        7.7868231965       17.5056360849
 In        -1.6859463085       10.7061171866       17.5046889600
 In         6.7432853741        1.9453453399       17.5055840943
 In         5.0572106234        4.8651052153       17.5102197367
 In         3.3704421536        7.7869388729       17.5103272677
 In         1.6846721606       10.7069151499       17.5055846102
 In        10.1149841351        1.9467151209       17.5050654156
 In         8.4302077377        4.8656307115       17.5067102826
 In         6.7442446584        7.7870505930       17.5101603557
 In         5.0574468192       10.7076384489       17.5068724975
 Ga        -0.0000021118        0.0000273052       20.5764744983
 Ga        -1.6857579330        2.9199035682       20.5761782575
 Ga        -3.3715119415        5.8397430856       20.5764901561
 Ga        -5.0573082030        8.7596150462       20.5763955140
 Ga         3.3714616891       -0.0000308637       20.5767512326
 Ga         1.6856983749        2.9198020510       20.5763001692
 Ga         0.0000261831        5.8397316081       20.5764537017
 Ga        -1.6858050359        8.7596411096       20.5768158970
 Ga         6.7431659730       -0.0000710249       20.5767198792
 Ga         5.0572550195        2.9197566017       20.5763836432
 Ga         3.3715931621        5.8397026577       20.5761598819
 Ga         1.6857693152        8.7595867847       20.5764382084
 Ga        10.1148614686        0.0000457053       20.5764384683
 Ga         8.4289522605        2.9198544239       20.5764976331
 Ga         6.7430321786        5.8397839543       20.5763167502
 Ga         5.0574278649        8.7595048271       20.5763072316
 Ga         1.6857573885        0.9734145385        3.1258974626
 Ga        -0.0000290404        3.8931052622        3.1262131677
 Ga        -1.6858125936        6.8129432890        3.1260177512
 Ga        -3.3714633336        9.7329518333        3.1257251984
 Ga         5.0573706202        0.9732145451        3.1258028108
 Ga         3.3715437578        3.8931314388        3.1255992686
 Ga         1.6857203499        6.8129287899        3.1257356875
 Ga        -0.0000205546        9.7328815165        3.1257945168
 Ga         8.4289663682        0.9733030117        3.1260549668
 Ga         6.7430886442        3.8931814359        3.1257095066
 Ga         5.0572936228        6.8129996188        3.1254541226
 Ga         3.3715369323        9.7328772088        3.1256956085
 Ga        11.8004276901        0.9732840448        3.1261865529
 Ga        10.1147409309        3.8931472073        3.1263222794
 Ga         8.4289385205        6.8129894762        3.1256999228
 Ga         6.7431441496        9.7329299163        3.1256938359
 Ga        -0.0005981996        1.9468986820       11.8504302156
 Ga        -1.6857756841        4.8658388965       11.8503945184
 Ga        -3.3660666237        7.7892722028       11.8507550634
 Ga        -5.0520703645       10.7095389137       11.8508591064
 Ga         3.3713067946        1.9403726683       11.8507845657
 Ga         1.6869328033        4.8670883819       11.8504501378
 Ga        -0.0054177053        7.7892523672       11.8508355068
 Ga        -1.6858496014       10.7061080580       11.8513347832
 Ga         6.7433671229        1.9403195559       11.8508800719
 Ga         5.0572871000        4.8531688561       11.8533611111
 Ga         3.3600917717        7.7928935038       11.8531774517
 Ga         1.6805892847       10.7095155153       11.8508213082
 Ga        10.1153308297        1.9470247456       11.8503167011
 Ga         8.4276784759        4.8671106784       11.8504471801
 Ga         6.7543928751        7.7929163466       11.8534854280
 Ga         5.0574606885       10.7047742302       11.8502732865
  O        -0.0000356741       -0.0000050038        3.1522016029
  O        -1.6858079820        2.9198371149        3.1518291014
  O        -3.3716623780        5.8397373971        3.1519926732
  O        -5.0573955470        8.7595624549        3.1517388734
  O         3.3714416065        0.0000794859        3.1517513190
  O         1.6858348547        2.9199926184        3.1521003828
  O        -0.0000016110        5.8396807774        3.1518014960
  O        -1.6857518590        8.7594385079        3.1517158381
  O         6.7432665756        0.0000259733        3.1517287856
  O         5.0573051744        2.9199513816        3.1517921976
  O         3.3716253240        5.8397284595        3.1520045582
  O         1.6858669730        8.7594731573        3.1517086689
  O        10.1147177832       -0.0000784778        3.1517791178
  O         8.4288697318        2.9199338320        3.1518341339
  O         6.7430378051        5.8398151846        3.1520299260
  O         5.0573639787        8.7594869585        3.1519292454
  O         1.6847011290        0.9739964701       11.8757099220
  O         0.0015542695        3.8940438302       11.8753589973
  O        -1.6857276729        6.8118386286       11.8756639583
  O        -3.3706494013        9.7334488965       11.8755131306
  O         5.0572971043        0.9721600871       11.8754897212
  O         3.3714209431        3.8874716465       11.8768582130
  O         1.6808766509        6.8157393899       11.8771001243
  O        -0.0009013444        9.7335005382       11.8751912923
  O         8.4300826231        0.9739269544       11.8756785899
  O         6.7431232681        3.8874643744       11.8768193712
  O         3.3667923703        9.7357798821       11.8771644340
  O        11.8004675044        0.9714195468       11.8754145203
  O        10.1131473247        3.8941636581       11.8752786754
  O         8.4337322373        6.8158281387       11.8764137221
  O         6.7480136608        9.7357571544       11.8768618779
  O        -0.0000054085        1.9465643902       20.5976128839
  O        -1.6857780492        4.8665490601       20.5974054493
  O        -3.3716527041        7.7863035087       20.5972784636
  O        -5.0574451910       10.7060022958       20.5973635251
  O         3.3715066441        1.9466234750       20.5976493789
  O         1.6859459352        4.8664780225       20.5973604670
  O         0.0000585140        7.7863369177       20.5972951293
  O        -1.6858166995       10.7062034701       20.5977251741
  O         6.7430913725        1.9466185069       20.5972408969
  O         5.0573363459        4.8664494491       20.5968367082
  O         3.3716496181        7.7862783701       20.5964993898
  O         1.6859213708       10.7060844475       20.5974447175
  O        10.1146968898        1.9465978158       20.5975356253
  O         8.4287368069        4.8666086244       20.5969704956
  O         6.7431416002        7.7862634211       20.5965525940
  O         5.0574320699       10.7058833162       20.5969973116
  O        -0.0013379867        0.0050762655        7.6974881480
  O        -1.6857498366        2.9198490300        7.6976018355
  O        -3.3678295511        5.8360740439        7.6974814924
  O        -5.0628231281        8.7562996917        7.7037129485
  O         3.3707151109        0.0005684503        7.6994500281
  O         1.6806889889        2.9184612040        7.6974803258
  O        -0.0038757813        5.8361555516        7.6975428828
  O        -1.6857722246        8.7585206265        7.6994013519
  O         6.7441122607        0.0004841224        7.6993163988
  O         5.0574987194        2.9262745685        7.7037273857
  O         3.3748371882        5.8414928743        7.7045937886
  O         1.6914165025        8.7563779331        7.7037401844
  O        10.1158638287        0.0052454407        7.6974628760
  O         8.4339744896        2.9185293857        7.6975568738
  O         6.7397236839        5.8415968333        7.7047823986
  O         5.0572622776        8.7557172128        7.7046250098
  O         1.6855242462        0.9735525446       16.4232996777
  O         0.0008228997        3.8935967317       16.4233268693
  O        -1.6858347922        6.8127670200       16.4233207630
  O        -3.3723862698        9.7323913612       16.4238615680
  O         5.0574281736        0.9742311399       16.4238241495
  O         3.3746177571        3.8958503676       16.4201344470
  O         1.6897351144        6.8143374595       16.4202079773
  O         0.0006178693        9.7324326482       16.4236316220
  O         8.4292187309        0.9734340420       16.4234792144
  O         6.7398858101        3.8959144693       16.4202387176
  O         5.0572727808        6.8130683174       16.4315376042
  O         3.3724167482        9.7287955528       16.4201348131
  O        11.8004590362        0.9723202036       16.4233495523
  O        10.1139356839        3.8935591727       16.4233606281
  O         8.4247931790        6.8142496594       16.4203584170
  O         6.7424677596        9.7287576953       16.4202528850
  O         0.0002895513        1.9466657573       25.1487504927
  O        -1.6858220195        4.8665591725       25.1488148117
  O        -3.3715912101        7.7864407162       25.1487783770
  O        -5.0572380595       10.7059717343       25.1487477522
  O         3.3716728291        1.9464243162       25.1487081034
  O         1.6860218981        4.8667118317       25.1489147852
  O         0.0001113179        7.7863071480       25.1488861416
  O        -1.6858190734       10.7061550905       25.1486755033
  O         6.7430632019        1.9466262593       25.1488543120
  O         5.0573560317        4.8665537507       25.1490415422
  O         3.3716265295        7.7862626735       25.1492235849
  O         1.6856455295       10.7061668867       25.1488469832
  O        10.1144228757        1.9464968213       25.1488217601
  O         8.4287115548        4.8665056706       25.1488889681
  O         6.7432588362        7.7862814230       25.1489781665
  O         5.0574176920       10.7057323723       25.1489896917
  O         0.0007043482       -0.0005717748       18.5933434470
  O        -1.6857672691        2.9198941429       18.5932613333
  O        -3.3716978019        5.8406417131       18.5933653756
  O        -5.0578574310        8.7592647951       18.5931086048
  O         3.3725009148       -0.0005813130       18.5941407885
  O         1.6865695641        2.9195381909       18.5931591717
  O         0.0000241514        5.8406299904       18.5933533298
  O        -1.6856168853        8.7605364531       18.5942208813
  O         6.7422421428       -0.0003346608       18.5941067974
  O         5.0575465166        2.9204353980       18.5930177546
  O         3.3720692686        5.8400624303       18.5923677528
  O         1.6862682073        8.7594700779       18.5930225566
  O        10.1137974661       -0.0004703835       18.5933058219
  O         8.4281256230        2.9195266789       18.5933782503
  O         6.7427492018        5.8399913268       18.5924235487
  O         5.0574981356        8.7589869186       18.5924739826
  O         1.6857325087        0.9733028278        1.1442462362
  O         0.0000868912        3.8932634210        1.1446077618
  O        -1.6856894454        6.8130290830        1.1444284591
  O        -3.3716110175        9.7328375226        1.1440112695
  O         5.0574044268        0.9733530386        1.1440163408
  O         3.3715856735        3.8932808827        1.1437330023
  O         1.6857347661        6.8130018562        1.1438337790
  O         0.0000142320        9.7326731894        1.1440261820
  O         8.4288590442        0.9734954111        1.1443219780
  O         6.7432989996        3.8930917883        1.1438252367
  O         5.0575397105        6.8131231298        1.1433240667
  O         3.3715949110        9.7328282650        1.1437966282
  O        11.8003810568        0.9732633343        1.1446205524
  O        10.1146921123        3.8931759640        1.1446719873
  O         8.4287965274        6.8130089926        1.1438407590
  O         6.7431106918        9.7328265313        1.1438121002
  O         0.0000628520        1.9464850089        9.8690704571
  O        -1.6858363435        4.8666147050        9.8689929138
  O        -3.3749857889        7.7857112284        9.8693432908
  O        -5.0591622834       10.7033176563        9.8694380650
  O         3.3731459638        1.9496049376        9.8693602606
  O         1.6904277089        4.8692945289        9.8698207564
  O         0.0033574509        7.7859571496        9.8694469418
  O        -1.6858438990       10.7062839289        9.8707594684
  O         6.7416995987        1.9495722607        9.8694549630
  O         5.0575482613        4.9132638389        9.8832630042
  O         3.4120631774        7.7629313882        9.8832243814
  O         1.6876803847       10.7033569700        9.8694764964
  O        10.1146362572        1.9462996713        9.8689322778
  O         8.4240256833        4.8691911237        9.8697811889
  O         6.7031039912        7.7630585577        9.8835195179
  O         5.0572165418       10.7005200203        9.8695405537
  O         0.0000301387       -0.0000777438       22.5828713801
  O        -1.6857854069        2.9198873819       22.5827280538
  O        -3.3715663521        5.8398322437       22.5828941166
  O        -5.0572632865        8.7595526329       22.5828989397
  O         3.3717036961        0.0000099813       22.5829243959
  O         1.6858561778        2.9198399408       22.5827284452
  O         0.0000298035        5.8397802827       22.5828283905
  O        -1.6857473928        8.7596777035       22.5829476455
  O         6.7430461811       -0.0000694679       22.5828689856
  O         5.0574004892        2.9197342514       22.5828751948
  O         3.3715787227        5.8397924142       22.5826600908
  O         1.6856794432        8.7596269614       22.5828997669
  O        10.1145791845       -0.0000937397       22.5828472910
  O         8.4288622149        2.9198595477       22.5829380290
  O         6.7431379361        5.8397528901       22.5827907331
  O         5.0572501918        8.7597005479       22.5827016585
  O         1.6857602138        0.9731788186        5.1339595614
  O        -0.0004638082        3.8929507888        5.1340801134
  O        -1.6857759077        6.8130460999        5.1339920131
  O        -3.3716650830        9.7328669093        5.1340192316
  O         5.0573278104        0.9733678330        5.1341715595
  O         3.3715019704        3.8933438441        5.1346669675
  O         1.6860505224        6.8128889431        5.1347874547
  O        -0.0000274092        9.7328478823        5.1341567073
  O         8.4289410443        0.9732512680        5.1340969550
  O         6.7432241004        3.8934590349        5.1347636207
  O         5.0573495223        6.8131445768        5.1354987099
  O         3.3717974974        9.7327550139        5.1347838650
  O        11.8005401291        0.9737586526        5.1340858454
  O        10.1150107777        3.8928802865        5.1341273446
  O         8.4286910268        6.8128564942        5.1347153807
  O         6.7429209643        9.7328164320        5.1347450650
  O         0.0004359316        1.9463136393       13.8569308909
  O        -1.6857157037        4.8668769729       13.8569517540
  O        -3.3741700359        7.7863720477       13.8575827757
  O        -5.0585612222       10.7038750685       13.8577071980
  O         3.3729252186        1.9488452952       13.8577104097
  O         1.6877047118        4.8674889550       13.8563679013
  O         0.0027693576        7.7863680291       13.8576886974
  O        -1.6858093590       10.7062238237       13.8570014792
  O         6.7417466966        1.9488553939       13.8577219653
  O         5.0572294501        4.8922461765       13.8478426979
  O         3.3936683779        7.7734238680       13.8474842674
  O         1.6869553278       10.7037601911       13.8577106556
  O        10.1140923989        1.9462595965       13.8568690955
  O         8.4271316242        4.8675410618       13.8564018314
  O         6.7210242967        7.7734024608       13.8477997515
  O         5.0574251792       10.7041893560       13.8562965717
     335
 i =        2, E =    -12260.0257696175
 Zn        -0.0001961533        0.0013351567        5.6912093375
 Zn        -1.6858016147        2.9199047844        5.6937808228
 Zn        -3.3705202379        5.8388943171        5.6912552921
 Zn        -5.0575539067        8.7594582361        5.6955512067
 Zn         3.3715890406        0.0000151083        5.6932457229
 Zn         1.6845346589        2.9193654336        5.6912941670
 Zn        -0.0010657542        5.8389170822        5.6912926497
 Zn        -1.6858458931        8.7595822885        5.6932423659
 Zn         6.7431482667       -0.0000145874        5.6932304101
 Zn         5.0573376816        2.9201229910        5.6955871619
 Zn         3.3700699572        5.8388290443        5.6870525353
 Zn         1.6859764654        8.7594559879        5.6956491502
 Zn        10.1148444860        0.0013454862        5.6913055743
 Zn         8.4301170849        2.9193332683        5.6912893455
 Zn         6.7446033082        5.8388977465        5.6869727484
 Zn         5.0573265695        8.7613499365        5.6870100869
 Zn         1.6856541233        0.9733726278       14.4251723031
 Zn        -0.0008441157        3.8926102940       14.4239613482
 Zn        -1.6857452857        6.8127863962       14.4250436038
 Zn        -3.3689572806        9.7343103399       14.4272689932
 Zn         5.0573718165        0.9703149638       14.4272853805
 Zn         3.3706595681        3.8943687576       14.4214795586
 Zn         1.6864136027        6.8115290285       14.4213880282
 Zn        -0.0025961060        9.7343485236       14.4272679141
 Zn         8.4290244660        0.9733396597       14.4250613318
 Zn         6.7440847952        3.8944711219       14.4213362502
 Zn         5.0573428704        6.8130891821       14.4933950938
 Zn         3.3731714761        9.7331124781       14.4213241387
 Zn        11.8004105448        0.9743074668       14.4238836353
 Zn        10.1155660118        3.8926203402       14.4238467268
 Zn         8.4283375732        6.8115488404       14.4213449944
 Zn         6.7415620033        9.7330879354       14.4213970103
 Zn         0.0000004950        1.9465796417       23.1470066810
 Zn        -1.6857837272        4.8664189949       23.1470233938
 Zn        -3.3716660334        7.7863150404       23.1471239892
 Zn        -5.0574156001       10.7060650443       23.1471476927
 Zn         3.3716151354        1.9466667957       23.1470588370
 Zn         1.6859774700        4.8665399811       23.1470042664
 Zn         0.0000852874        7.7862530298       23.1470704477
 Zn        -1.6858085894       10.7062164541       23.1470355402
 Zn         6.7431116285        1.9466452956       23.1470704564
 Zn         5.0573411776        4.8665688394       23.1470722379
 Zn         3.3716650418        7.7862582791       23.1470866064
 Zn         1.6858086572       10.7060823994       23.1469919582
 Zn        10.1146874556        1.9465746304       23.1469968936
 Zn         8.4287239216        4.8665940799       23.1470385377
 Zn         6.7430221535        7.7862355416       23.1471211566
 Zn         5.0573407906       10.7059353752       23.1470530309
 In         0.0001171978       -0.0000931866        0.0512804926
 In        -1.6858352277        2.9199780325        0.0518078597
 In        -3.3715764418        5.8396642736        0.0513826407
 In        -5.0574081992        8.7596368280        0.0511474912
 In         3.3715343713       -0.0000556185        0.0512645799
 In         1.6858149637        2.9199559398        0.0512456956
 In         0.0000779074        5.8397285679        0.0514963011
 In        -1.6857135870        8.7596108920        0.0512753224
 In         6.7431385888        0.0000239297        0.0513356470
 In         5.0574702369        2.9197824069        0.0509723307
 In         3.3714846205        5.8397751998        0.0509198377
 In         1.6857408224        8.7595369428        0.0511422918
 In        10.1145673454       -0.0000035923        0.0514615883
 In         8.4288909055        2.9198610247        0.0514314348
 In         6.7432418741        5.8396892643        0.0509179717
 In         5.0575221521        8.7596012813        0.0509773333
 In         1.6847889239        0.9739672603        8.7746004270
 In        -0.0054244747        3.8900077522        8.7761666292
 In        -1.6858390740        6.8117288892        8.7745752576
 In        -3.3690589481        9.7342473317        8.7736466166
 In         5.0573341981        0.9704267604        8.7735421015
 In         3.3626851074        3.8902350678        8.7723258472
 In         1.6788394546        6.8067013554        8.7722297487
 In        -0.0024660538        9.7343273373        8.7737214156
 In         8.4300873674        0.9738995661        8.7746560364
 In         6.7520304251        3.8902516517        8.7723459595
 In         5.0573882497        6.8130273619        8.6839961398
 In         3.3734664691        9.7420983583        8.7722129861
 In        11.8003826765        0.9795372902        8.7760735420
 In        10.1201101276        3.8900518491        8.7761842997
 In         8.4359480196        6.8067177459        8.7724617600
 In         6.7412806233        9.7419359755        8.7722737427
 In        -0.0001583969        1.9467100285       17.5039078024
 In        -1.6857739366        4.8663140287       17.5040550601
 In        -3.3703487922        7.7872189841       17.5051146200
 In        -5.0558982948       10.7066948606       17.5049606288
 In         3.3718524879        1.9450336063       17.5049376553
 In         1.6844811586        4.8656597728       17.5064002173
 In        -0.0012722097        7.7873735524       17.5049871549
 In        -1.6857105608       10.7061465618       17.5049928910
 In         6.7428852748        1.9450022697       17.5050507940
 In         5.0574019400        4.8618562835       17.5186487470
 In         3.3676274319        7.7887115663       17.5187764058
 In         1.6842533444       10.7067591530       17.5049028539
 In        10.1148657023        1.9466428320       17.5041752953
 In         8.4301044245        4.8657626470       17.5066109110
 In         6.7471317861        7.7885129808       17.5187782747
 In         5.0573090104       10.7075839920       17.5065442520
 Ga         0.0002481891       -0.0001559383       20.5780675423
 Ga        -1.6858529384        2.9198686716       20.5779369796
 Ga        -3.3715318066        5.8400506169       20.5779482650
 Ga        -5.0570589404        8.7596921092       20.5786317840
 Ga         3.3720290954       -0.0001687505       20.5781070189
 Ga         1.6860516193        2.9197167163       20.5781811784
 Ga        -0.0001331742        5.8400730607       20.5780787434
 Ga        -1.6856742734        8.7598838248       20.5780058532
 Ga         6.7428355299       -0.0001002719       20.5780106317
 Ga         5.0575059616        2.9195343329       20.5787956146
 Ga         3.3714692393        5.8397007314       20.5793749298
 Ga         1.6854779213        8.7598393961       20.5787605636
 Ga        10.1142031025       -0.0001148339       20.5780400494
 Ga         8.4286746092        2.9196201805       20.5780137012
 Ga         6.7433351086        5.8395818047       20.5792279720
 Ga         5.0572669008        8.7597913368       20.5792643979
 Ga         1.6859413375        0.9730552245        3.1257591720
 Ga         0.0000369914        3.8932229929        3.1255009403
 Ga        -1.6857820763        6.8132668378        3.1256285597
 Ga        -3.3718691965        9.7327305006        3.1263466186
 Ga         5.0573874611        0.9735752068        3.1263297529
 Ga         3.3718180049        3.8934948905        3.1266372404
 Ga         1.6862264064        6.8131471596        3.1265566545
 Ga         0.0001922598        9.7327074332        3.1262811215
 Ga         8.4287354547        0.9731932338        3.1255707249
 Ga         6.7429843200        3.8934741675        3.1265560391
 Ga         5.0574476657        6.8131117282        3.1275086756
 Ga         3.3717472420        9.7325117947        3.1265057836
 Ga        11.8004682035        0.9732127834        3.1254569349
 Ga        10.1145979338        3.8931909746        3.1254576448
 Ga         8.4284689700        6.8130463481        3.1266043752
 Ga         6.7429737452        9.7324637189        3.1265916818
 Ga         0.0004147326        1.9463651284       11.8517008583
 Ga        -1.6858621285        4.8668807772       11.8516888424
 Ga        -3.3647872434        7.7895810137       11.8505663149
 Ga        -5.0509965085       10.7102751748       11.8506579403
 Ga         3.3710897427        1.9389783675       11.8505963411
 Ga         1.6869634311        4.8671458758       11.8478501383
 Ga        -0.0068549108        7.7896238622       11.8506128641
 Ga        -1.6857726408       10.7062253609       11.8517492304
 Ga         6.7436651964        1.9390185911       11.8506801039
 Ga         5.0574473385        4.8359132930       11.8442094611
 Ga         3.3450870245        7.8015917542       11.8442028795
 Ga         1.6793983613       10.7104240078       11.8506728264
 Ga        10.1142227758        1.9462454706       11.8517185857
 Ga         8.4277803051        4.8671189990       11.8477726995
 Ga         6.7696946645        7.8015590499       11.8441015092
 Ga         5.0572850119       10.7048643529       11.8479177089
  O        -0.0000090547       -0.0005591849        3.1521362452
  O        -1.6858190468        2.9198449684        3.1517562764
  O        -3.3720026665        5.8400824886        3.1524165879
  O        -5.0577810957        8.7593474436        3.1524941406
  O         3.3717735164       -0.0001079155        3.1521096043
  O         1.6862667223        2.9199903348        3.1522118996
  O         0.0004264645        5.8400824200        3.1525275309
  O        -1.6858333068        8.7598100985        3.1522711294
  O         6.7430016364       -0.0001312465        3.1522771760
  O         5.0573768433        2.9203606181        3.1524584024
  O         3.3721591560        5.8400545174        3.1527126681
  O         1.6861965663        8.7594449268        3.1526028951
  O        10.1146320112       -0.0005068847        3.1525094152
  O         8.4284664792        2.9200073089        3.1526014250
  O         6.7426176130        5.8399841906        3.1527647311
  O         5.0573512038        8.7590696152        3.1528217382
  O         1.6869146368        0.9726240866       11.8729233687
  O         0.0025688327        3.8946732534       11.8726887429
  O        -1.6857715426        6.8142699122       11.8730755148
  O        -3.3707303411        9.7332283386       11.8726951321
  O         5.0573835733        0.9724854651       11.8728643069
  O         3.3726227349        3.8841303876       11.8785470151
  O         1.6784596255        6.8184508871       11.8784501266
  O        -0.0007593211        9.7332748278       11.8729476722
  O         8.4277550187        0.9726035514       11.8729570659
  O         6.7421274135        3.8841009730       11.8788086013
  O         3.3631985995        9.7365569012       11.8784479463
  O        11.8004855353        0.9703225207       11.8725763818
  O        10.1121061898        3.8945524848       11.8726948684
  O         8.4362148750        6.8183320995       11.8790062350
  O         6.7513394681        9.7365548542       11.8786768049
  O         0.0001790819        1.9464955575       20.5966703602
  O        -1.6858369960        4.8666799254       20.5968524298
  O        -3.3715010944        7.7865520379       20.5973794892
  O        -5.0570737216       10.7060176983       20.5973340827
  O         3.3718413942        1.9465305644       20.5969946636
  O         1.6858859781        4.8665870241       20.5961602457
  O         0.0001241577        7.7865574094       20.5973550341
  O        -1.6856717095       10.7060919382       20.5986013122
  O         6.7429936849        1.9464531714       20.5974221033
  O         5.0573307842        4.8664697708       20.5958881080
  O         3.3714965212        7.7863412480       20.5959225939
  O         1.6854522145       10.7060019336       20.5973151480
  O        10.1144970428        1.9464473204       20.5968181462
  O         8.4288582633        4.8664565045       20.5965995481
  O         6.7430241880        7.7862536803       20.5961357437
  O         5.0572249073       10.7061021308       20.5963873649
  O        -0.0022629509        0.0004513075        7.6975420355
  O        -1.6857961572        2.9198854413        7.6978532175
  O        -3.3723058956        5.8372969752        7.6975162640
  O        -5.0722012136        8.7510568961        7.7082605125
  O         3.3704073447        0.0005303653        7.6990382672
  O         1.6841391245        2.9216580507        7.6976447586
  O         0.0006967126        5.8374607042        7.6975348518
  O        -1.6857082740        8.7583338852        7.6990337416
  O         6.7442845140        0.0005793420        7.6990535026
  O         5.0574052650        2.9370691444        7.7083194933
  O         3.3654634932        5.8361177812        7.6948217824
  O         1.7005906374        8.7509956487        7.7083494991
  O        10.1169965537        0.0005433652        7.6975758864
  O         8.4305435984        2.9216266591        7.6975480690
  O         6.7492709221        5.8361871576        7.6947369544
  O         5.0573756930        8.7667219833        7.6947388219
  O         1.6860644511        0.9730932556       16.4245126063
  O         0.0017177405        3.8942203314       16.4235123522
  O        -1.6858094143        6.8133182715       16.4243993174
  O        -3.3720642129        9.7325587969       16.4256011986
  O         5.0573132412        0.9738312292       16.4255994942
  O         3.3779448553        3.8980683863       16.4177411188
  O         1.6932306982        6.8161030033       16.4176528050
  O         0.0004285244        9.7325550941       16.4255548517
  O         8.4287504283        0.9731954663       16.4243437176
  O         6.7368122810        3.8980332182       16.4175570128
  O         5.0572191010        6.8130960627       16.4464964676
  O         3.3726381537        9.7249955356       16.4175798798
  O        11.8004631479        0.9711626265       16.4234965429
  O        10.1128914686        3.8941645150       16.4234473051
  O         8.4215694029        6.8160779305       16.4175571410
  O         6.7420922751        9.7249558091       16.4176332420
  O        -0.0002991488        1.9466680192       25.1487273637
  O        -1.6857802001        4.8662397028       25.1487042169
  O        -3.3713419062        7.7860603591       25.1487058116
  O        -5.0574222161       10.7064338469       25.1487347569
  O         3.3713728645        1.9465793776       25.1486743793
  O         1.6855501395        4.8662711758       25.1484784614
  O        -0.0001494693        7.7861407024       25.1485943152
  O        -1.6857010400       10.7061614404       25.1487632182
  O         6.7432963524        1.9464712496       25.1486126470
  O         5.0572493088        4.8663353985       25.1483750477
  O         3.3715065493        7.7864518645       25.1483519125
  O         1.6858354396       10.7062933065       25.1485945183
  O        10.1151147978        1.9465832875       25.1486601995
  O         8.4293510220        4.8663063705       25.1485183008
  O         6.7432497891        7.7862992659       25.1483970941
  O         5.0572465769       10.7066916718       25.1485381697
  O         0.0005944093       -0.0018093288       18.5930707362
  O        -1.6857125598        2.9198551951       18.5936167148
  O        -3.3728491908        5.8411248879       18.5930030755
  O        -5.0567357459        8.7600411385       18.5942217430
  O         3.3719040956       -0.0001712963       18.5942646529
  O         1.6877805039        2.9202482399       18.5932249205
  O         0.0014602763        5.8412131879       18.5931198756
  O        -1.6858286367        8.7600759762       18.5942083576
  O         6.7427683771       -0.0002914897       18.5942450891
  O         5.0571712348        2.9192509082       18.5943234886
  O         3.3706504095        5.8391828870       18.5941555845
  O         1.6852069342        8.7599299929       18.5942003448
  O        10.1141454780       -0.0019332095       18.5931088278
  O         8.4270693001        2.9202988912       18.5930793829
  O         6.7437912022        5.8391642624       18.5940499047
  O         5.0573676985        8.7605989536       18.5940491686
  O         1.6856211308        0.9735089931        1.1449159573
  O         0.0000912503        3.8930011780        1.1447570186
  O        -1.6859289380        6.8128643287        1.1448265554
  O        -3.3715462856        9.7328269842        1.1452205788
  O         5.0572042237        0.9733207435        1.1451654198
  O         3.3716208535        3.8931477933        1.1455557363
  O         1.6858746561        6.8129236643        1.1455531409
  O         0.0000209127        9.7329208402        1.1451366044
  O         8.4290328770        0.9732628175        1.1447675699
  O         6.7429932718        3.8933309307        1.1455460824
  O         5.0573742256        6.8128758825        1.1461236376
  O         3.3716905697        9.7328910577        1.1454411641
  O        11.8006531830        0.9731794367        1.1446507333
  O        10.1147817378        3.8932466746        1.1447249240
  O         8.4289864831        6.8129740552        1.1455774588
  O         6.7430705987        9.7330660653        1.1455913657
  O         0.0014787296        1.9455873769        9.8709174963
  O        -1.6857399795        4.8681365163        9.8709349703
  O        -3.3781954331        7.7862339027        9.8682251540
  O        -5.0608729598       10.7004851811        9.8682090707
  O         3.3748358417        1.9525350607        9.8682088179
  O         1.6909063326        4.8694111744        9.8685276024
  O         0.0068087840        7.7861346345        9.8682076708
  O        -1.6857963912       10.7061245873        9.8707573974
  O         6.7399530384        1.9523890904        9.8682482235
  O         5.0573380636        4.9600972290        9.9042628205
  O         3.4525972525        7.7395741595        9.9042985967
  O         1.6893047248       10.7003700767        9.8683081220
  O        10.1132033373        1.9457890904        9.8709916388
  O         8.4237897029        4.8691808849        9.8684866255
  O         6.6620576720        7.7395761916        9.9041472429
  O         5.0574164552       10.7001509825        9.8685013320
  O        -0.0001490051       -0.0001014274       22.5829659775
  O        -1.6857767552        2.9198765965       22.5829573905
  O        -3.3717208479        5.8396380772       22.5828772526
  O        -5.0576972172        8.7593752201       22.5830298091
  O         3.3713813958        0.0000904417       22.5828938093
  O         1.6858229010        2.9200684900       22.5829889195
  O         0.0001841806        5.8396368091       22.5829061414
  O        -1.6857605951        8.7593874001       22.5828310694
  O         6.7433017398        0.0000953196       22.5827955446
  O         5.0573580705        2.9202063673       22.5831720846
  O         3.3717847519        5.8398810332       22.5832628008
  O         1.6861258422        8.7593781300       22.5831498308
  O        10.1148907024       -0.0001180390       22.5829333773
  O         8.4288777588        2.9200769800       22.5829103469
  O         6.7429098621        5.8399057383       22.5831295540
  O         5.0573212292        8.7593454423       22.5831210802
  O         1.6860078826        0.9732041411        5.1350759695
  O        -0.0003994372        3.8929454837        5.1344766604
  O        -1.6857993392        6.8132326207        5.1349529469
  O        -3.3728804619        9.7321381063        5.1367080815
  O         5.0573414216        0.9748214076        5.1367809221
  O         3.3718276257        3.8928997285        5.1377624538
  O         1.6857416482        6.8133582549        5.1376930870
  O         0.0013130220        9.7320983688        5.1367302532
  O         8.4287297548        0.9731793918        5.1349406206
  O         6.7428467457        3.8929283177        5.1377162112
  O         5.0573069453        6.8130305542        5.1405881104
  O         3.3712113076        9.7327669259        5.1377057738
  O        11.8004528309        0.9737181737        5.1345325276
  O        10.1150615901        3.8929194990        5.1344042640
  O         8.4289701565        6.8133942240        5.1377100575
  O         6.7434761562        9.7327313635        5.1377607715
  O         0.0005027437        1.9462497906       13.8557054091
  O        -1.6857715103        4.8670554183       13.8556916598
  O        -3.3767192318        7.7871081781       13.8569330261
  O        -5.0591679543       10.7013640177       13.8570666074
  O         3.3748325052        1.9506658846       13.8570763892
  O         1.6903590442        4.8690297028       13.8514022093
  O         0.0051793649        7.7871777220       13.8570425123
  O        -1.6857624033       10.7061451235       13.8557720887
  O         6.7398700566        1.9506205154       13.8570936845
  O         5.0572573826        4.9306081490       13.8145772635
  O         3.4270812007        7.7542571375       13.8143904358
  O         1.6875598129       10.7012804205       13.8570699843
  O        10.1140939926        1.9462830184       13.8556790467
  O         8.4243904677        4.8690773530       13.8513140691
  O         6.6877066766        7.7542387923       13.8145106541
  O         5.0573984271       10.7009630715       13.8514631660
     335
 i =        3, E =    -12260.0288146978
 Zn        -0.0002090343        0.0015406490        5.6916970668
 Zn        -1.6857837309        2.9198591110        5.6919229466
 Zn        -3.3703653074        5.8387849337        5.6917600957
 Zn        -5.0584276747        8.7589660960        5.6968963176
 Zn         3.3711728297        0.0002439875        5.6919909301
 Zn         1.6843716844        2.9192766033        5.6916938990
 Zn        -0.0012344068        5.8387953909        5.6916834198
 Zn        -1.6857599622        8.7591454774        5.6920199169
 Zn         6.7435490673        0.0001726632        5.6920270760
 Zn         5.0573410925        2.9211129151        5.6968353949
 Zn         3.3664939505        5.8368127672        5.6771967150
 Zn         1.6868577642        8.7589836543        5.6968452541
 Zn        10.1148760158        0.0015370468        5.6916816628
 Zn         8.4303445140        2.9192790977        5.6917278802
 Zn         6.7482088330        5.8367957248        5.6772276637
 Zn         5.0573111579        8.7654436867        5.6772075401
 Zn         1.6857469183        0.9732774042       14.4262032107
 Zn        -0.0006211814        3.8928052236       14.4233984413
 Zn        -1.6858019035        6.8129265561       14.4262799597
 Zn        -3.3688896671        9.7343948506       14.4290687720
 Zn         5.0573484033        0.9701955629       14.4290807247
 Zn         3.3676847603        3.8950451665       14.4200968828
 Zn         1.6854930704        6.8087206753       14.4201275204
 Zn        -0.0026659681        9.7343962741       14.4291041679
 Zn         8.4289830442        0.9733514607       14.4263321808
 Zn         6.7470556312        3.8950424079       14.4201646288
 Zn         5.0573601404        6.8129985905       14.5307429363
 Zn         3.3751465656        9.7353350025       14.4201805555
 Zn        11.8004827547        0.9739249613       14.4234575725
 Zn        10.1152812745        3.8927986166       14.4235201127
 Zn         8.4292413905        6.8086779054       14.4201175413
 Zn         6.7395489021        9.7353788187       14.4201307850
 Zn        -0.0001127677        1.9466381077       23.1476251304
 Zn        -1.6858154572        4.8663303470       23.1476780074
 Zn        -3.3715187348        7.7862293128       23.1476639465
 Zn        -5.0573770972       10.7062336109       23.1476164827
 Zn         3.3714863480        1.9465477627       23.1476527454
 Zn         1.6856615526        4.8663948630       23.1477705942
 Zn        -0.0000696451        7.7862304114       23.1477165518
 Zn        -1.6857678555       10.7061615805       23.1473674482
 Zn         6.7432552212        1.9465713765       23.1477015223
 Zn         5.0573520936        4.8664576889       23.1483327120
 Zn         3.3715591238        7.7863069176       23.1483593982
 Zn         1.6857963009       10.7062634103       23.1477202171
 Zn        10.1147939762        1.9466395495       23.1477205575
 Zn         8.4290585206        4.8663778987       23.1477647338
 Zn         6.7431809619        7.7862688233       23.1483275945
 Zn         5.0573128846       10.7063101031       23.1477611606
 In        -0.0000631059        0.0000832918        0.0518267074
 In        -1.6857577392        2.9198103889        0.0519512994
 In        -3.3715788949        5.8397459731        0.0518003901
 In        -5.0572773924        8.7595343468        0.0520741873
 In         3.3716471045       -0.0000116005        0.0518734766
 In         1.6858244026        2.9198717236        0.0518337065
 In         0.0000214094        5.8397182509        0.0518585357
 In        -1.6857886944        8.7596522805        0.0517643692
 In         6.7430432380       -0.0000708418        0.0517636854
 In         5.0573207163        2.9198926635        0.0520011842
 In         3.3715018739        5.8395979876        0.0516808223
 In         1.6858232500        8.7596311352        0.0519624645
 In        10.1147742556       -0.0000590109        0.0517681198
 In         8.4289398599        2.9198916681        0.0517536883
 In         6.7432976390        5.8396185437        0.0516515566
 In         5.0573351732        8.7598136253        0.0516630669
 In         1.6846127581        0.9739396022        8.7713740583
 In        -0.0037168830        3.8909588889        8.7744758828
 In        -1.6857494395        6.8116652754        8.7712498713
 In        -3.3707620290        9.7333471468        8.7722870020
 In         5.0573895103        0.9723548456        8.7722367511
 In         3.3607714062        3.8933021383        8.7762883151
 In         1.6804732104        6.8035766803        8.7762386690
 In        -0.0008049593        9.7332966485        8.7723452537
 In         8.4300503407        0.9739899378        8.7713670814
 In         6.7539507132        3.8932581767        8.7761972634
 In         5.0573587247        6.8130049448        8.6488816912
 In         3.3771300158        9.7421766716        8.7762381469
 In        11.8005359883        0.9775329378        8.7744292944
 In        10.1184134096        3.8909822158        8.7743842116
 In         8.4342393326        6.8035579855        8.7761710593
 In         6.7376433277        9.7422138302        8.7762026478
 In         0.0001156594        1.9465050854       17.5059161291
 In        -1.6858178151        4.8665600825       17.5058287622
 In        -3.3700879307        7.7870639646       17.5054388902
 In        -5.0559658147       10.7070378874       17.5054799020
 In         3.3715111696        1.9449488572       17.5055833093
 In         1.6855037693        4.8662993677       17.5066010442
 In        -0.0014170102        7.7870713148       17.5053976075
 In        -1.6858033545       10.7061698292       17.5086618241
 In         6.7431740811        1.9449471518       17.5054114283
 In         5.0572828153        4.8578516555       17.5324910451
 In         3.3640458199        7.7906081599       17.5325408158
 In         1.6844226455       10.7070353625       17.5052971062
 In        10.1146158430        1.9465330269       17.5058738538
 In         8.4292621265        4.8662112693       17.5064134861
 In         6.7505739050        7.7905933210       17.5324551414
 In         5.0573302937       10.7065731703       17.5064942045
 Ga         0.0002118423        0.0000999214       20.5782711480
 Ga        -1.6856638433        2.9198125555       20.5779232681
 Ga        -3.3714211448        5.8398194675       20.5783868899
 Ga        -5.0566772129        8.7600982065       20.5809562818
 Ga         3.3715007920       -0.0000335855       20.5787691554
 Ga         1.6858759143        2.9196549652       20.5782242949
 Ga        -0.0000159998        5.8397837074       20.5782610141
 Ga        -1.6858826438        8.7597216066       20.5788297692
 Ga         6.7430049543       -0.0000728914       20.5788107263
 Ga         5.0572110925        2.9191496103       20.5808606911
 Ga         3.3706830338        5.8392075006       20.5816062667
 Ga         1.6851176140        8.7598895216       20.5809124994
 Ga        10.1146841234       -0.0000052773       20.5783047319
 Ga         8.4288675629        2.9197594380       20.5783567795
 Ga         6.7438958681        5.8393267598       20.5817100194
 Ga         5.0573990481        8.7605649487       20.5816977195
 Ga         1.6861415570        0.9732248289        3.1242358534
 Ga        -0.0004524093        3.8928411568        3.1240813766
 Ga        -1.6857683073        6.8133711847        3.1243443852
 Ga        -3.3715467568        9.7328642886        3.1251070630
 Ga         5.0572196368        0.9733229156        3.1250895033
 Ga         3.3715120315        3.8919892291        3.1235949743
 Ga         1.6847788694        6.8134563881        3.1237046251
 Ga         0.0000233107        9.7329159183        3.1251839358
 Ga         8.4285744812        0.9731155537        3.1243962920
 Ga         6.7431255618        3.8920442437        3.1236339745
 Ga         5.0573000819        6.8128921306        3.1236463183
 Ga         3.3706366654        9.7335015908        3.1237157754
 Ga        11.8005992460        0.9739056666        3.1240759702
 Ga        10.1152436637        3.8928099416        3.1241136536
 Ga         8.4299894770        6.8135317035        3.1236394296
 Ga         6.7440291910        9.7335745332        3.1236055789
 Ga         0.0003527312        1.9463221833       11.8518589573
 Ga        -1.6856604215        4.8667752744       11.8519139042
 Ga        -3.3618340656        7.7912039585       11.8517038121
 Ga        -5.0483733045       10.7121712701       11.8516218185
 Ga         3.3709530838        1.9358452724       11.8516193071
 Ga         1.6842679620        4.8655133941       11.8490465779
 Ga        -0.0096580235        7.7911334631       11.8515885397
 Ga        -1.6858150010       10.7061466296       11.8514198229
 Ga         6.7437145737        1.9357456389       11.8516168641
 Ga         5.0574338303        4.7919866630       11.8356105360
 Ga         3.3067396675        7.8237382667       11.8355861342
 Ga         1.6767038874       10.7120540637       11.8515858956
 Ga        10.1143916893        1.9463623341       11.8518848199
 Ga         8.4304738297        4.8655290891       11.8491497886
 Ga         6.8078778630        7.8235321877       11.8355575213
 Ga         5.0574174667       10.7079339495       11.8490742488
  O        -0.0000258188        0.0000744962        3.1535991760
  O        -1.6857310183        2.9198703380        3.1515839907
  O        -3.3715956274        5.8395807191        3.1534226501
  O        -5.0575294919        8.7595679871        3.1540058926
  O         3.3718713663       -0.0002274425        3.1543497465
  O         1.6857432610        2.9200135727        3.1536004399
  O         0.0000458589        5.8395761424        3.1533627684
  O        -1.6857392654        8.7600124610        3.1542184033
  O         6.7426808574       -0.0001480057        3.1541732036
  O         5.0573266864        2.9199954854        3.1540889784
  O         3.3716561647        5.8397179901        3.1570637077
  O         1.6859199310        8.7594726686        3.1538847328
  O        10.1148684981        0.0000748129        3.1533683455
  O         8.4289500791        2.9199754025        3.1532170540
  O         6.7430492933        5.8398154787        3.1570236139
  O         5.0573647746        8.7593721603        3.1569625425
  O         1.6882939772        0.9719368103       11.8737096904
  O         0.0025639867        3.8945031327       11.8730219323
  O        -1.6857502552        6.8157885030       11.8736284840
  O        -3.3704463338        9.7335960219       11.8729107989
  O         5.0572921007        0.9719082801       11.8729341538
  O         3.3670942032        3.8759088210       11.8741266729
  O         1.6684738762        6.8176509239       11.8741015058
  O        -0.0012344231        9.7335297934       11.8729772468
  O         8.4264615624        0.9718356385       11.8737133202
  O         6.7476498906        3.8758294488       11.8741406091
  O         3.3589130882        9.7455949173       11.8741628654
  O        11.8004992362        0.9703699642       11.8730721890
  O        10.1122821454        3.8946093596       11.8730412925
  O         8.4462782783        6.8176621344       11.8740298288
  O         6.7558298739        9.7454373871       11.8741799506
  O         0.0003705527        1.9463979767       20.5967179478
  O        -1.6857544545        4.8667570756       20.5965717131
  O        -3.3718530711        7.7862613506       20.5977377062
  O        -5.0575290133       10.7060161385       20.5978902727
  O         3.3716411856        1.9467150690       20.5979939748
  O         1.6856218387        4.8662219272       20.5978881911
  O         0.0001462799        7.7862786647       20.5978396040
  O        -1.6859149091       10.7062193837       20.5982623700
  O         6.7429748378        1.9468207052       20.5977863421
  O         5.0573253405        4.8665840679       20.5956653461
  O         3.3717209201        7.7862379715       20.5956562369
  O         1.6859404822       10.7059616891       20.5978124306
  O        10.1144513549        1.9464248732       20.5965477274
  O         8.4290622182        4.8664216683       20.5976589076
  O         6.7430876028        7.7862910588       20.5954836182
  O         5.0575019123       10.7063900572       20.5978241248
  O        -0.0021162200       -0.0020020429        7.7009856577
  O        -1.6857704458        2.9197979300        7.6994662234
  O        -3.3744098498        5.8389155617        7.7010706755
  O        -5.0843557475        8.7438967561        7.7180631156
  O         3.3710466144        0.0003694286        7.7003378575
  O         1.6865317493        2.9227445459        7.7010338745
  O         0.0029089571        5.8387912937        7.7009566384
  O        -1.6858256425        8.7589422170        7.7003752166
  O         6.7436979137        0.0002997070        7.7003994985
  O         5.0572566251        2.9510813600        7.7180211421
  O         3.3574469721        5.8316005188        7.6885773452
  O         1.7128468016        8.7439788715        7.7180012146
  O        10.1168471819       -0.0020763269        7.7010012398
  O         8.4282176344        2.9226641100        7.7010083623
  O         6.7573280949        5.8315888507        7.6886018953
  O         5.0573785139        8.7759144076        7.6885604243
  O         1.6859016791        0.9732434346       16.4228463671
  O         0.0022052069        3.8943861761       16.4212890509
  O        -1.6857542167        6.8131288527       16.4229460256
  O        -3.3718135389        9.7327356051       16.4247931232
  O         5.0573549869        0.9735622535       16.4248282319
  O         3.3823298100        3.9003404112       16.4127123743
  O         1.6974553289        6.8187139876       16.4127212726
  O         0.0002004809        9.7327963122       16.4248872542
  O         8.4287187479        0.9732520065       16.4229565356
  O         6.7323111365        3.9004268061       16.4127784929
  O         5.0573653881        6.8130764110       16.4608591908
  O         3.3724914509        9.7198837306       16.4128007539
  O        11.8005571947        0.9708541858       16.4213572564
  O        10.1125743180        3.8944259613       16.4213958836
  O         8.4172730248        6.8187713935       16.4127521819
  O         6.7422499169        9.7198974887       16.4127296081
  O         0.0001228027        1.9466032299       25.1488170976
  O        -1.6857133737        4.8664693909       25.1488987123
  O        -3.3719000775        7.7863462353       25.1487742981
  O        -5.0575190669       10.7058865624       25.1487986137
  O         3.3716947689        1.9467996986       25.1487920780
  O         1.6860220368        4.8666420132       25.1487629713
  O         0.0003149145        7.7862122145       25.1488477766
  O        -1.6858790966       10.7061752115       25.1487033886
  O         6.7430735992        1.9468694150       25.1488435032
  O         5.0574709122        4.8667050222       25.1489770274
  O         3.3718562112        7.7861199617       25.1490111539
  O         1.6859265238       10.7059611880       25.1488729882
  O        10.1145707639        1.9466225518       25.1489152860
  O         8.4285912997        4.8665632456       25.1487487405
  O         6.7428950054        7.7862469166       25.1490347056
  O         5.0574580934       10.7057535667       25.1486855842
  O         0.0003677186       -0.0033405214       18.5911555095
  O        -1.6858108973        2.9199174788       18.5919906856
  O        -3.3743235001        5.8417273590       18.5912498952
  O        -5.0542447648        8.7612683660       18.5953185353
  O         3.3712771103        0.0001542082       18.5939020155
  O         1.6887412243        2.9211892320       18.5911024289
  O         0.0025397635        5.8417212482       18.5911176530
  O        -1.6858006503        8.7591676072       18.5939431167
  O         6.7435140309        0.0001922685       18.5939216358
  O         5.0575078938        2.9162028011       18.5952022028
  O         3.3687584281        5.8381309651       18.5957125101
  O         1.6825662417        8.7614995821       18.5951771454
  O        10.1142708822       -0.0033109094       18.5912051741
  O         8.4258106311        2.9211782889       18.5912378047
  O         6.7461022144        5.8380716114       18.5957708000
  O         5.0573534836        8.7629282947       18.5957426179
  O         1.6857979432        0.9732208678        1.1445524992
  O         0.0002524474        3.8934107530        1.1444143848
  O        -1.6856738777        6.8129551302        1.1446646848
  O        -3.3718567698        9.7327474678        1.1447891086
  O         5.0574711067        0.9736010035        1.1447817041
  O         3.3716280747        3.8938412027        1.1442378412
  O         1.6863921785        6.8128229487        1.1443366868
  O         0.0003086986        9.7327133359        1.1448727765
  O         8.4289512198        0.9733462458        1.1446893467
  O         6.7431739156        3.8937162030        1.1442660148
  O         5.0573914215        6.8131437531        1.1438443962
  O         3.3720671893        9.7324108268        1.1443859207
  O        11.8003672143        0.9730102103        1.1444462100
  O        10.1143370567        3.8932289255        1.1444321319
  O         8.4282266820        6.8127541177        1.1442785459
  O         6.7426936052        9.7323594414        1.1442249313
  O         0.0011927468        1.9459410144        9.8701216293
  O        -1.6858313284        4.8678293491        9.8701733736
  O        -3.3810770835        7.7851783259        9.8676794395
  O        -5.0629954046       10.6984518998        9.8676064680
  O         3.3753942935        1.9552790105        9.8675719703
  O         1.6925917874        4.8702882814        9.8724216347
  O         0.0094071380        7.7852202999        9.8675691909
  O        -1.6857573625       10.7061769611        9.8687150743
  O         6.7392915824        1.9553216856        9.8675844720
  O         5.0573945439        4.9903721244        9.9293412681
  O         3.4789263512        7.7243303033        9.9293158292
  O         1.6914542335       10.6985634348        9.8675426163
  O        10.1135346168        1.9458906505        9.8701487722
  O         8.4221908783        4.8704394318        9.8725502903
  O         6.6358810121        7.7243211215        9.9291821329
  O         5.0573688353       10.6983770814        9.8724189416
  O        -0.0001414667       -0.0001351703       22.5820810786
  O        -1.6858040800        2.9198896204       22.5817814884
  O        -3.3717577501        5.8396761765       22.5821645089
  O        -5.0578794726        8.7592525508       22.5832585941
  O         3.3713907451        0.0000988197       22.5824438790
  O         1.6858508734        2.9200665331       22.5820264671
  O         0.0001578854        5.8396868175       22.5820444437
  O        -1.6857884881        8.7593111204       22.5825047596
  O         6.7433585961        0.0001462867       22.5824832558
  O         5.0573690544        2.9204714598       22.5832020253
  O         3.3719565667        5.8399654363       22.5831025691
  O         1.6863451009        8.7592881278       22.5832514081
  O        10.1148265814       -0.0001058560       22.5820893872
  O         8.4288786917        2.9200485903       22.5821370926
  O         6.7427847386        5.8399351000       22.5831836568
  O         5.0573552518        8.7591575982       22.5831556534
  O         1.6855994391        0.9734119510        5.1353486104
  O         0.0001927153        3.8932667334        5.1346562218
  O        -1.6858146826        6.8128060429        5.1354356235
  O        -3.3743957027        9.7312241756        5.1389871101
  O         5.0573727669        0.9765664162        5.1390197960
  O         3.3723295632        3.8911188361        5.1370130205
  O         1.6843934995        6.8147135059        5.1370793400
  O         0.0028787596        9.7312197889        5.1390505052
  O         8.4290830602        0.9734000367        5.1354834425
  O         6.7423692034        3.8911006511        5.1370486612
  O         5.0573634506        6.8130017221        5.1428507103
  O         3.3694062208        9.7332535390        5.1370953002
  O        11.8004704584        0.9730242016        5.1346913921
  O        10.1145221511        3.8932778143        5.1346517884
  O         8.4302908154        6.8147226329        5.1370273088
  O         6.7452783791        9.7332248180        5.1370429432
  O         0.0010222160        1.9459696200       13.8546139552
  O        -1.6858353522        4.8676768144       13.8546446787
  O        -3.3799626720        7.7870369646       13.8582069265
  O        -5.0608650245       10.6985648792       13.8581525317
  O         3.3763648193        1.9535096826       13.8582477019
  O         1.6929351969        4.8705965146       13.8477418601
  O         0.0083528715        7.7870137608       13.8581810796
  O        -1.6857995962       10.7061456842       13.8557399158
  O         6.7383366091        1.9534393910       13.8582094728
  O         5.0573225983        4.9648440111       13.7762196140
  O         3.4568609502        7.7371110126       13.7761058567
  O         1.6893144136       10.6986041567       13.8581911321
  O        10.1136801229        1.9459994188       13.8546059261
  O         8.4217574123        4.8705612822       13.8477774244
  O         6.6579584221        7.7371287609       13.7762637299
  O         5.0573376194       10.6978767652       13.8477741118
     335
 i =        4, E =    -12260.0300396153
 Zn        -0.0004624841        0.0021253173        5.6909987456
 Zn        -1.6857422293        2.9198446568        5.6888245132
 Zn        -3.3700234891        5.8382082086        5.6909881446
 Zn        -5.0601341470        8.7580184777        5.6986965060
 Zn         3.3704894460        0.0005946970        5.6897560753
 Zn         1.6837366101        2.9192891472        5.6910394502
 Zn        -0.0015611560        5.8381605360        5.6909995576
 Zn        -1.6857160658        8.7584245013        5.6897674622
 Zn         6.7441401761        0.0005869609        5.6898196773
 Zn         5.0573316467        2.9230321195        5.6986914918
 Zn         3.3611473423        5.8337460006        5.6633600543
 Zn         1.6885705547        8.7579804144        5.6986947282
 Zn        10.1152315632        0.0021217036        5.6910173460
 Zn         8.4310310548        2.9193169596        5.6909762592
 Zn         6.7535783964        5.8336974724        5.6632876526
 Zn         5.0573613304        8.7715128791        5.6633279308
 Zn         1.6861410468        0.9731079250       14.4283038496
 Zn        -0.0013434759        3.8923929188       14.4239930297
 Zn        -1.6858173513        6.8134061041       14.4282884483
 Zn        -3.3685174583        9.7347107870       14.4328826879
 Zn         5.0573191870        0.9696948203       14.4329017613
 Zn         3.3620726834        3.8946243295       14.4215281530
 Zn         1.6823006665        6.8041448324       14.4215064196
 Zn        -0.0030427042        9.7346843391       14.4328711377
 Zn         8.4286481947        0.9731381283       14.4281927588
 Zn         6.7526193417        3.8944929063       14.4215258529
 Zn         5.0573631830        6.8129586765       14.5820403568
 Zn         3.3774977357        9.7403799144       14.4215232471
 Zn        11.8005619640        0.9747248196       14.4239615667
 Zn        10.1160381298        3.8924085604       14.4239600469
 Zn         8.4323933578        6.8041049984       14.4214896970
 Zn         6.7371572374        9.7403961376       14.4215160824
 Zn        -0.0002860653        1.9468013706       23.1487240487
 Zn        -1.6857410027        4.8660651857       23.1486953486
 Zn        -3.3711284934        7.7859186602       23.1489480260
 Zn        -5.0574568290       10.7067851995       23.1490265751
 Zn         3.3709775705        1.9463119173       23.1489912597
 Zn         1.6848677363        4.8659251525       23.1489807896
 Zn        -0.0004829155        7.7859179771       23.1489079612
 Zn        -1.6857963437       10.7061700024       23.1483671687
 Zn         6.7436808105        1.9463889389       23.1489007894
 Zn         5.0573554147        4.8662564591       23.1509609629
 Zn         3.3714080019        7.7863600295       23.1508932800
 Zn         1.6858929915       10.7067880406       23.1488937262
 Zn        10.1150328349        1.9467961133       23.1486743894
 Zn         8.4297863074        4.8658976107       23.1489603090
 Zn         6.7433946271        7.7863930390       23.1510060372
 Zn         5.0573981547       10.7071702802       23.1489190849
 In         0.0000488044        0.0002166283        0.0501020237
 In        -1.6858028957        2.9198878259        0.0504092888
 In        -3.3713497049        5.8395118051        0.0501964461
 In        -5.0571542496        8.7597762104        0.0504475140
 In         3.3717271554       -0.0001349915        0.0499750214
 In         1.6855340456        2.9197541144        0.0500915933
 In        -0.0001816994        5.8396058857        0.0501769315
 In        -1.6857524379        8.7597910513        0.0500772081
 In         6.7430047848       -0.0000348197        0.0501052789
 In         5.0574155918        2.9195991693        0.0504853014
 In         3.3713449507        5.8395994953        0.0489583750
 In         1.6855736162        8.7597088289        0.0505965784
 In        10.1146939951        0.0002805738        0.0502252089
 In         8.4291497622        2.9196964068        0.0502379793
 In         6.7434038995        5.8396406227        0.0489306616
 In         5.0573408760        8.7598593247        0.0489855853
 In         1.6843348969        0.9742219249        8.7668906133
 In        -0.0050216046        3.8901659880        8.7708571481
 In        -1.6858169620        6.8112357401        8.7669156974
 In        -3.3729345495        9.7320997524        8.7710278540
 In         5.0573077351        0.9748428062        8.7710010689
 In         3.3568087550        3.8947165690        8.7836971643
 In         1.6797930810        6.7994538104        8.7836733038
 In         0.0013432069        9.7320671375        8.7709761967
 In         8.4304295577        0.9741464948        8.7669178678
 In         6.7578779297        3.8947605981        8.7837025947
 In         5.0573755100        6.8130042284        8.6180161439
 In         3.3803926880        9.7448533636        8.7836825963
 In        11.8004976511        0.9791103087        8.7708864516
 In        10.1198001408        3.8902079052        8.7709122265
 In         8.4349672017        6.7994686104        8.7837025701
 In         6.7343695263        9.7448431062        8.7836643817
 In         0.0000537418        1.9466086065       17.5058179747
 In        -1.6857832180        4.8664371463       17.5058791345
 In        -3.3692356702        7.7871984863       17.5028682256
 In        -5.0554213812       10.7077096280       17.5027646917
 In         3.3711657077        1.9440750445       17.5027448306
 In         1.6864992122        4.8668797748       17.5019482191
 In        -0.0023748100        7.7871923087       17.5028174910
 In        -1.6857555705       10.7062054787       17.5130292179
 In         6.7434901747        1.9440716315       17.5028725382
 In         5.0574051817        4.8524707998       17.5530809758
 In         3.3594159526        7.7933312596       17.5531130799
 In         1.6838374119       10.7077548316       17.5028528522
 In        10.1146594224        1.9465962832       17.5059448715
 In         8.4281394237        4.8669189231       17.5020509555
 In         6.7552831022        7.7933078015       17.5531200963
 In         5.0573662439       10.7052714377       17.5019619050
 Ga         0.0002529582       -0.0003274242       20.5800999245
 Ga        -1.6859274985        2.9199110329       20.5797035704
 Ga        -3.3717079071        5.8401215229       20.5800585592
 Ga        -5.0555357024        8.7605202041       20.5858662694
 Ga         3.3717655436       -0.0000642053       20.5807529739
 Ga         1.6861128443        2.9197919680       20.5801693886
 Ga        -0.0000486800        5.8401851102       20.5800887924
 Ga        -1.6857309941        8.7596036315       20.5807088343
 Ga         6.7431617229       -0.0000339764       20.5807262874
 Ga         5.0575149402        2.9177383188       20.5858792917
 Ga         3.3697936519        5.8387352651       20.5874926884
 Ga         1.6839196441        8.7607483344       20.5858893508
 Ga        10.1142664916       -0.0002136016       20.5800557389
 Ga         8.4285403691        2.9196984444       20.5800186081
 Ga         6.7450878092        5.8386143291       20.5873992918
 Ga         5.0573047681        8.7617094490       20.5874652002
 Ga         1.6858950984        0.9730877548        3.1247317549
 Ga        -0.0001377492        3.8931476489        3.1241460378
 Ga        -1.6857953225        6.8131995951        3.1246350594
 Ga        -3.3722114797        9.7324851446        3.1256287658
 Ga         5.0575120721        0.9740223878        3.1255707937
 Ga         3.3718156068        3.8912077185        3.1224065081
 Ga         1.6841862726        6.8143338106        3.1222814696
 Ga         0.0006723513        9.7324753849        3.1254963718
 Ga         8.4287821477        0.9732057767        3.1245669348
 Ga         6.7429639113        3.8910828217        3.1223199769
 Ga         5.0573910829        6.8131089559        3.1220434589
 Ga         3.3696670462        9.7336510737        3.1222943300
 Ga        11.8003729284        0.9733758686        3.1241377736
 Ga        10.1147712060        3.8931381017        3.1240600192
 Ga         8.4304863503        6.8142125906        3.1223412779
 Ga         6.7450618248        9.7335698363        3.1223623242
 Ga        -0.0008924863        1.9471279025       11.8508309552
 Ga        -1.6858793214        4.8654669321       11.8507944638
 Ga        -3.3516781611        7.7943431106       11.8520814739
 Ga        -5.0404195755       10.7192767962       11.8520425004
 Ga         3.3686843910        1.9254034154       11.8520967702
 Ga         1.6787320659        4.8623489933       11.8486682500
 Ga        -0.0199451805        7.7943922775       11.8520713592
 Ga        -1.6857398967       10.7061565544       11.8507151384
 Ga         6.7460630417        1.9254085335       11.8520428031
 Ga         5.0575177875        4.6907014230       11.8230869604
 Ga         3.2187920066        7.8745442017       11.8231285448
 Ga         1.6688333900       10.7194099669       11.8520976314
 Ga        10.1155825813        1.9470862398       11.8508574960
 Ga         8.4360694329        4.8623444124       11.8486576365
 Ga         6.8958592139        7.8742311376       11.8230769020
 Ga         5.0573021409       10.7143038328       11.8487249784
  O        -0.0000174454       -0.0007001166        3.1519555663
  O        -1.6858058404        2.9198387244        3.1519014795
  O        -3.3721036364        5.8401589164        3.1520006989
  O        -5.0575765458        8.7593955015        3.1515668790
  O         3.3728087236       -0.0006167221        3.1552968584
  O         1.6863698580        2.9200697033        3.1519342592
  O         0.0005606768        5.8401916187        3.1521052538
  O        -1.6857517925        8.7609207138        3.1553486573
  O         6.7420754542       -0.0007150842        3.1554102664
  O         5.0573670641        2.9201630263        3.1515210177
  O         3.3722707836        5.8402039327        3.1580256504
  O         1.6860564407        8.7594857303        3.1516919396
  O        10.1145508459       -0.0007045248        3.1521330206
  O         8.4283522627        2.9200610064        3.1521563228
  O         6.7424161427        5.8400594564        3.1580110663
  O         5.0573248373        8.7588921066        3.1580601571
  O         1.6881056389        0.9719447150       11.8765006874
  O         0.0020662637        3.8944431834       11.8755549369
  O        -1.6857812941        6.8156712603       11.8765672144
  O        -3.3695670614        9.7339796681       11.8744807733
  O         5.0573920218        0.9710084053       11.8744048971
  O         3.3514933616        3.8547498891       11.8718012297
  O         1.6421860918        6.8147555071       11.8717280701
  O        -0.0019386143        9.7339994218       11.8743600137
  O         8.4265796632        0.9720127788       11.8765028454
  O         6.7634011294        3.8546853558       11.8717342416
  O         3.3482505406        9.7697850395       11.8717359404
  O        11.8004808530        0.9708038698       11.8755919914
  O        10.1125811832        3.8943437389       11.8756542711
  O         8.4725268333        6.8146584437       11.8718041799
  O         6.7663630785        9.7696117016       11.8717249597
  O         0.0007161022        1.9460865334       20.5922147409
  O        -1.6858524184        4.8673995650       20.5923137861
  O        -3.3717843198        7.7861397404       20.5962785254
  O        -5.0575723649       10.7059835886       20.5960985101
  O         3.3716400233        1.9469249646       20.5960379393
  O         1.6849447906        4.8660918319       20.5962072235
  O         0.0003645015        7.7861963109       20.5961498125
  O        -1.6856691526       10.7061142401       20.5955619615
  O         6.7432044395        1.9468476470       20.5962137096
  O         5.0573971339        4.8661395134       20.5910218410
  O         3.3712160445        7.7865225992       20.5910935450
  O         1.6860541970       10.7059970818       20.5962087767
  O        10.1138369657        1.9460821175       20.5922716898
  O         8.4297763904        4.8658712237       20.5964644058
  O         6.7433120075        7.7863984667       20.5911290379
  O         5.0572171080       10.7071565426       20.5963730177
  O        -0.0031575809       -0.0042363672        7.7037462963
  O        -1.6858249533        2.9198580179        7.6987933520
  O        -3.3768525937        5.8391009669        7.7037167144
  O        -5.1054779927        8.7317704958        7.7341088892
  O         3.3711702960        0.0001872770        7.7013396027
  O         1.6879075319        2.9247598698        7.7037266545
  O         0.0053564066        5.8390390752        7.7037284662
  O        -1.6858121230        8.7590931781        7.7013857829
  O         6.7434937270        0.0002692174        7.7014316070
  O         5.0573044074        2.9755141412        7.7341100408
  O         3.3529034480        5.8290562589        7.6860116077
  O         1.7339531957        8.7317452162        7.7341226954
  O        10.1179905601       -0.0043672208        7.7037531496
  O         8.4268087437        2.9247658524        7.7037084866
  O         6.7619498273        5.8288815354        7.6859179934
  O         5.0573837349        8.7811622948        7.6859832440
  O         1.6854025833        0.9734257925       16.4204616591
  O         0.0033685417        3.8951233306       16.4187582569
  O        -1.6857571499        6.8125763900       16.4204188908
  O        -3.3714318947        9.7329512488       16.4243108049
  O         5.0573373672        0.9731496051       16.4243266862
  O         3.3906567444        3.9056997913       16.4074783472
  O         1.7061680569        6.8233132180       16.4074096138
  O         0.0000026357        9.7329477753       16.4243368643
  O         8.4293338855        0.9735177720       16.4203354703
  O         6.7241243274        3.9056518575       16.4074287583
  O         5.0573742151        6.8129975127       16.4859028154
  O         3.3728125822        9.7101431331       16.4074133157
  O        11.8004014030        0.9694377781       16.4187466473
  O        10.1112861326        3.8950868268       16.4187297218
  O         8.4086435191        6.8232883397       16.4073984219
  O         6.7417687839        9.7101347851       16.4074053331
  O        -0.0000020995        1.9464653426       25.1486599476
  O        -1.6857655427        4.8665413958       25.1486394296
  O        -3.3719675847        7.7861933201       25.1490202385
  O        -5.0576206939       10.7058965122       25.1490145261
  O         3.3717328489        1.9470595897       25.1490362933
  O         1.6862066427        4.8666006938       25.1486374380
  O         0.0003927153        7.7863148900       25.1489564968
  O        -1.6857303703       10.7061437128       25.1487721654
  O         6.7429856462        1.9469212170       25.1489282135
  O         5.0573688185        4.8667152485       25.1497065485
  O         3.3718302547        7.7861483100       25.1496182427
  O         1.6861157291       10.7057783227       25.1489497993
  O        10.1146900563        1.9465234683       25.1486068378
  O         8.4285259328        4.8666945708       25.1486401128
  O         6.7428054155        7.7861281987       25.1497331215
  O         5.0572889091       10.7058191456       25.1485719154
  O        -0.0000840943       -0.0058581779       18.5883200216
  O        -1.6857497385        2.9198082903       18.5906627745
  O        -3.3767282553        5.8425058230       18.5882440781
  O        -5.0509072983        8.7633931449       18.5969710562
  O         3.3697231029        0.0010245375       18.5937292149
  O         1.6908505685        2.9229559963       18.5883714986
  O         0.0052656648        5.8425138969       18.5882812496
  O        -1.6858467829        8.7576279145       18.5936603339
  O         6.7448212006        0.0009460181       18.5936949086
  O         5.0572101780        2.9124435933       18.5970047038
  O         3.3648739579        5.8358519082       18.5994956842
  O         1.6793154776        8.7631966564       18.5969778676
  O        10.1149945267       -0.0059217442       18.5882668614
  O         8.4238605446        2.9229534959       18.5882224736
  O         6.7497181758        5.8359296264       18.5994195119
  O         5.0572388320        8.7673071583       18.5994643515
  O         1.6864116754        0.9729747733        1.1461861405
  O         0.0005588410        3.8934029077        1.1454665129
  O        -1.6858184687        6.8137386981        1.1460596050
  O        -3.3717413226        9.7327421860        1.1461815796
  O         5.0572707440        0.9735678515        1.1461729787
  O         3.3718997400        3.8947607673        1.1454324023
  O         1.6874713178        6.8124428190        1.1453603654
  O         0.0002223509        9.7328090649        1.1460808154
  O         8.4283734581        0.9727906715        1.1460737832
  O         6.7426978259        3.8948523699        1.1453728892
  O         5.0572401677        6.8129228900        1.1455108233
  O         3.3728558347        9.7318357964        1.1453789933
  O        11.8005896890        0.9726535763        1.1454448307
  O        10.1141689136        3.8934703011        1.1453897851
  O         8.4274336621        6.8124454970        1.1453670919
  O         6.7418250275        9.7318414988        1.1454303301
  O         0.0021848344        1.9453257794        9.8695601566
  O        -1.6857004567        4.8688934038        9.8695181257
  O        -3.3824794520        7.7868419595        9.8667058490
  O        -5.0625458059       10.6964636496        9.8666932015
  O         3.3773911438        1.9558309118        9.8667362887
  O         1.6946584840        4.8715238580        9.8764190668
  O         0.0109614392        7.7867600083        9.8666836638
  O        -1.6857192790       10.7061192391        9.8672770699
  O         6.7372407585        1.9559525738        9.8666745765
  O         5.0573509732        5.0223859749        9.9692509712
  O         3.5065868138        7.7083574382        9.9693157970
  O         1.6908817062       10.6964050731        9.8666956250
  O        10.1125282705        1.9453383752        9.8695844160
  O         8.4201164098        4.8715350337        9.8764128620
  O         6.6080459936        7.7083192998        9.9691794079
  O         5.0574365470       10.6960563693        9.8764978017
  O        -0.0000755251        0.0001828512       22.5822624440
  O        -1.6857481570        2.9198539659       22.5812436005
  O        -3.3714977698        5.8395372823       22.5822664665
  O        -5.0582929832        8.7591146814       22.5848400068
  O         3.3713129600        0.0000963146       22.5828087472
  O         1.6856443046        2.9199040257       22.5823075197
  O        -0.0000348026        5.8395661114       22.5822279186
  O        -1.6858033780        8.7593381601       22.5828163527
  O         6.7433444307        0.0001338135       22.5828319441
  O         5.0572835144        2.9209841205       22.5848507791
  O         3.3722157564        5.8400790082       22.5846827331
  O         1.6867636171        8.7590287254       22.5848846203
  O        10.1148697909        0.0001579491       22.5822334507
  O         8.4291016492        2.9198711039       22.5821898722
  O         6.7424467211        5.8401172174       22.5846279943
  O         5.0573950962        8.7587769877       22.5846657984
  O         1.6851087271        0.9737636442        5.1384778368
  O         0.0005176951        3.8933843555        5.1370121050
  O        -1.6857764303        6.8122068334        5.1384672624
  O        -3.3769063243        9.7297685374        5.1453888395
  O         5.0573213043        0.9794633188        5.1453295706
  O         3.3729821121        3.8881290927        5.1386028696
  O         1.6820784472        6.8167245459        5.1384733109
  O         0.0054207413        9.7298012351        5.1452664917
  O         8.4295806969        0.9737005220        5.1383708156
  O         6.7416998931        3.8880776395        5.1385243793
  O         5.0573633494        6.8129199759        5.1497848094
  O         3.3665230262        9.7341996855        5.1384873824
  O        11.8005152243        0.9727189237        5.1370349995
  O        10.1142888006        3.8934244545        5.1369549844
  O         8.4326038961        6.8167759350        5.1385471670
  O         6.7481811379        9.7342083226        5.1385423333
  O         0.0023576885        1.9452254548       13.8518653427
  O        -1.6857750525        4.8691949824       13.8518456506
  O        -3.3852133774        7.7872117360       13.8595299485
  O        -5.0634566483       10.6939421917       13.8594672445
  O         3.3791516320        1.9579958698       13.8595575316
  O         1.6972624060        4.8731473025       13.8403844307
  O         0.0136099887        7.7871522337       13.8595479765
  O        -1.6858075655       10.7061466607       13.8553637331
  O         6.7355483228        1.9578845271       13.8595242483
  O         5.0573748266        5.0099909660       13.7112209013
  O         3.4959965712        7.7145403200       13.7111831358
  O         1.6918992378       10.6939610822       13.8595671008
  O        10.1124626056        1.9452202973       13.8518849153
  O         8.4173466960        4.8730632078       13.8403995006
  O         6.6187881453        7.7145460288       13.7112600071
  O         5.0573099667       10.6927691380       13.8404772009
     335
 i =        5, E =    -12260.0319261552
 Zn        -0.0003544686        0.0017023035        5.6918291137
 Zn        -1.6857757514        2.9198502613        5.6899727572
 Zn        -3.3702829538        5.8385676727        5.6918409202
 Zn        -5.0597943427        8.7581776687        5.6988520182
 Zn         3.3708360336        0.0004187218        5.6908368062
 Zn         1.6841506491        2.9193323576        5.6918292490
 Zn        -0.0012924950        5.8385534775        5.6918278486
 Zn        -1.6857513602        8.7587601591        5.6908451926
 Zn         6.7438652935        0.0004045246        5.6908611288
 Zn         5.0573495929        2.9226813341        5.6988276138
 Zn         3.3638074039        5.8352728371        5.6698114372
 Zn         1.6882380494        8.7581832495        5.6988282950
 Zn        10.1150622672        0.0016963728        5.6918290829
 Zn         8.4305857237        2.9193406209        5.6918335324
 Zn         6.7509132533        5.8352267613        5.6697889952
 Zn         5.0573474030        8.7685186915        5.6698026634
 Zn         1.6858299282        0.9732694444       14.4272700584
 Zn        -0.0014710028        3.8923234603       14.4234642825
 Zn        -1.6857985091        6.8130536456       14.4273198939
 Zn        -3.3686906117        9.7345603688       14.4315302543
 Zn         5.0573409264        0.9699414984       14.4315402982
 Zn         3.3629899256        3.8937694393       14.4217640278
 Zn         1.6820039735        6.8053157951       14.4217916372
 Zn        -0.0028712127        9.7345519386       14.4315485481
 Zn         8.4289141517        0.9732959033       14.4273147876
 Zn         6.7517320441        3.8937010590       14.4218160312
 Zn         5.0573615674        6.8130116420       14.5427851776
 Zn         3.3763410840        9.7400211003       14.4218270695
 Zn        11.8005198964        0.9749306982       14.4234839081
 Zn        10.1161627687        3.8923168659       14.4235079671
 Zn         8.4326924724        6.8052902939       14.4218069823
 Zn         6.7383347532        9.7400155391       14.4217837223
 Zn        -0.0002018860        1.9467016605       23.1483835056
 Zn        -1.6857842759        4.8662162850       23.1484000165
 Zn        -3.3710679990        7.7859507851       23.1485697873
 Zn        -5.0573974847       10.7067771069       23.1485641924
 Zn         3.3710180135        1.9463030503       23.1485681562
 Zn         1.6848949205        4.8659457399       23.1485300353
 Zn        -0.0005052647        7.7859666828       23.1485849263
 Zn        -1.6857702116       10.7061564968       23.1480757937
 Zn         6.7436922009        1.9463213209       23.1485719316
 Zn         5.0573598922        4.8661813562       23.1502702900
 Zn         3.3713348020        7.7864290587       23.1502707158
 Zn         1.6858380349       10.7067853801       23.1485958222
 Zn        10.1149013496        1.9467008133       23.1484126676
 Zn         8.4298010836        4.8659101043       23.1485344958
 Zn         6.7433975626        7.7864192327       23.1502872668
 Zn         5.0573471780       10.7071826698       23.1485186278
 In         0.0000003667        0.0002208848        0.0512960593
 In        -1.6857704142        2.9198420548        0.0515130472
 In        -3.3713862628        5.8396352440        0.0512932619
 In        -5.0570414356        8.7597477837        0.0515862437
 In         3.3717593437       -0.0000947264        0.0511875579
 In         1.6856274392        2.9197457897        0.0513134556
 In        -0.0001724856        5.8396464154        0.0512966362
 In        -1.6857814289        8.7597860408        0.0511632605
 In         6.7429711253       -0.0001032537        0.0511563124
 In         5.0573480452        2.9195540418        0.0515988697
 In         3.3714447464        5.8396152479        0.0502346203
 In         1.6855206372        8.7597723512        0.0515693046
 In        10.1147179106        0.0001922514        0.0512731817
 In         8.4290937674        2.9197452354        0.0512806974
 In         6.7433094733        5.8396410913        0.0502124417
 In         5.0573241511        8.7597948696        0.0502207815
 In         1.6845313783        0.9740220796        8.7677172411
 In        -0.0049069818        3.8902848204        8.7708049194
 In        -1.6857767304        6.8115387064        8.7676743142
 In        -3.3717774750        9.7327581308        8.7715682948
 In         5.0573495904        0.9735251181        8.7715559459
 In         3.3587104700        3.8939422031        8.7813545863
 In         1.6800285434        6.8014887477        8.7813306972
 In         0.0002067457        9.7327318588        8.7715556600
 In         8.4301728708        0.9740188824        8.7677096304
 In         6.7560119227        3.8939367113        8.7813120167
 In         5.0573799736        6.8130161454        8.6532020801
 In         3.3787089494        9.7436190159        8.7813345971
 In        11.8005131936        0.9789460472        8.7708114771
 In        10.1196335648        3.8902869011        8.7707946718
 In         8.4347015740        6.8014796407        8.7812953928
 In         6.7360327983        9.7436384323        8.7813196776
 In         0.0001010458        1.9465240302       17.5061558780
 In        -1.6857965503        4.8665291874       17.5061185134
 In        -3.3697098623        7.7870956455       17.5031139768
 In        -5.0557495034       10.7073754198       17.5031307333
 In         3.3713089393        1.9445825248       17.5031527821
 In         1.6864044866        4.8668109288       17.5022906526
 In        -0.0018476676        7.7870853276       17.5030960602
 In        -1.6857887616       10.7061738314       17.5121545817
 In         6.7433630930        1.9445778968       17.5031097684
 In         5.0573393939        4.8557335320       17.5457149398
 In         3.3622538606        7.7916655973       17.5457351168
 In         1.6841916997       10.7073742487       17.5030802745
 In        10.1146129242        1.9465358125       17.5061333912
 In         8.4283141148        4.8667964839       17.5022215995
 In         6.7524135415        7.7916723936       17.5457017462
 In         5.0573530481       10.7054761685       17.5022438968
 Ga         0.0002361246       -0.0001747935       20.5786433898
 Ga        -1.6857453567        2.9198510289       20.5783615186
 Ga        -3.3716285439        5.8399995502       20.5786898154
 Ga        -5.0559214904        8.7604570277       20.5840882182
 Ga         3.3714545069        0.0000456468       20.5793491501
 Ga         1.6860746184        2.9197721902       20.5786456639
 Ga         0.0001040823        5.8399897439       20.5786481488
 Ga        -1.6858190925        8.7595291571       20.5793723945
 Ga         6.7431816152        0.0000279096       20.5793772748
 Ga         5.0572967545        2.9182155729       20.5840547654
 Ga         3.3699524438        5.8387830185       20.5855428832
 Ga         1.6843481833        8.7603921758       20.5840849825
 Ga        10.1145510408       -0.0002115965       20.5786571476
 Ga         8.4286326388        2.9197984525       20.5786639583
 Ga         6.7447074836        5.8388284960       20.5855535629
 Ga         5.0573667751        8.7614275539       20.5855699262
 Ga         1.6859181190        0.9732624510        3.1242330443
 Ga        -0.0000819799        3.8930720818        3.1238283401
 Ga        -1.6857797616        6.8131471464        3.1242680630
 Ga        -3.3719720000        9.7326416388        3.1248961087
 Ga         5.0573085398        0.9737650412        3.1248834535
 Ga         3.3717409650        3.8913593031        3.1224171416
 Ga         1.6843275799        6.8140276085        3.1224385170
 Ga         0.0004153098        9.7326575784        3.1249099764
 Ga         8.4287969485        0.9732184050        3.1242827992
 Ga         6.7429306290        3.8913768179        3.1224272113
 Ga         5.0573310874        6.8129708518        3.1218398053
 Ga         3.3699518394        9.7336192557        3.1224541565
 Ga        11.8005308376        0.9734140408        3.1238366800
 Ga        10.1148210928        3.8930826705        3.1238367162
 Ga         8.4303953432        6.8140689601        3.1224253580
 Ga         6.7447597620        9.7336367282        3.1224224478
 Ga        -0.0009253456        1.9471046545       11.8509307667
 Ga        -1.6857508925        4.8653409672       11.8509354253
 Ga        -3.3509259522        7.7941788962       11.8521317727
 Ga        -5.0402779343       10.7200896117       11.8520911098
 Ga         3.3681025892        1.9248895750       11.8521164680
 Ga         1.6804346168        4.8633330347       11.8491893920
 Ga        -0.0206705226        7.7941737697       11.8520987393
 Ga        -1.6857925005       10.7061761477       11.8506339754
 Ga         6.7465990901        1.9248520548       11.8520829459
 Ga         5.0574871696        4.7157429143       11.8289020009
 Ga         3.2406041551        7.8619461501       11.8289027425
 Ga         1.6686344555       10.7201369880       11.8520921541
 Ga        10.1156649046        1.9471234619       11.8509407110
 Ga         8.4343282687        4.8633117139       11.8492067466
 Ga         6.8739942702        7.8616446471       11.8288879982
 Ga         5.0573757355       10.7123491272       11.8491916929
  O         0.0001190423       -0.0004154193        3.1533035058
  O        -1.6857629334        2.9198592153        3.1529595819
  O        -3.3718997981        5.8400014637        3.1532396852
  O        -5.0573778428        8.7595999929        3.1529140021
  O         3.3725636451       -0.0005819179        3.1560590495
  O         1.6862097995        2.9200289632        3.1532965048
  O         0.0003394986        5.8399899008        3.1532298659
  O        -1.6857675593        8.7607615793        3.1560212971
  O         6.7420879782       -0.0005585062        3.1560013584
  O         5.0573450426        2.9198637949        3.1529362712
  O         3.3720547182        5.8399903088        3.1580997495
  O         1.6858055801        8.7595654403        3.1528710164
  O        10.1146450248       -0.0004157853        3.1532407506
  O         8.4284862795        2.9200184688        3.1531917788
  O         6.7426508258        5.8400198251        3.1580699780
  O         5.0573634258        8.7589871189        3.1580737174
  O         1.6867864396        0.9727535277       11.8755814486
  O         0.0017857098        3.8941512683       11.8743601359
  O        -1.6857907580        6.8140936307       11.8755549216
  O        -3.3693035422        9.7342117890       11.8741214097
  O         5.0573457140        0.9706575644       11.8741122268
  O         3.3540872014        3.8567746954       11.8722319932
  O         1.6453016769        6.8160111896       11.8722189433
  O        -0.0022988493        9.7341989840       11.8741294397
  O         8.4279359045        0.9727814459       11.8755724791
  O         6.7607450990        3.8567031226       11.8722067753
  O         3.3487441434        9.7664799021       11.8722272620
  O        11.8004980018        0.9712266903       11.8743885500
  O        10.1129740985        3.8941735243       11.8743665129
  O         8.4694119318        6.8159491717       11.8721903517
  O         6.7659385702        9.7662717747       11.8722182053
  O         0.0007265908        1.9461627695       20.5936369487
  O        -1.6857715129        4.8672420901       20.5936102627
  O        -3.3719195718        7.7860881721       20.5972398761
  O        -5.0577100153       10.7060050358       20.5972536343
  O         3.3715461578        1.9469372904       20.5972810591
  O         1.6850210979        4.8659611252       20.5975667965
  O         0.0003084677        7.7860976435       20.5972379164
  O        -1.6858354943       10.7061860908       20.5965029358
  O         6.7431209326        1.9469839014       20.5972243418
  O         5.0573484536        4.8662644742       20.5926238954
  O         3.3714281658        7.7863800654       20.5926529346
  O         1.6861467729       10.7059822595       20.5972322806
  O        10.1140121334        1.9461786392       20.5935818669
  O         8.4296725276        4.8660167795       20.5975151767
  O         6.7432996903        7.7863962088       20.5926056656
  O         5.0574121028       10.7070627564       20.5975653169
  O        -0.0029770513       -0.0024907919        7.7024460609
  O        -1.6857918695        2.9198481943        7.6982826556
  O        -3.3752245627        5.8384019942        7.7024565180
  O        -5.0966117594        8.7368928747        7.7294142762
  O         3.3711486388        0.0002573760        7.7005984620
  O         1.6864932244        2.9237019842        7.7024389175
  O         0.0037116280        5.8383458880        7.7024394548
  O        -1.6858021098        8.7590797422        7.7006112257
  O         6.7435567198        0.0002619981        7.7006274126
  O         5.0573022895        2.9652398238        7.7294031744
  O         3.3594648270        5.8327918188        7.6917026663
  O         1.7250949475        8.7368990373        7.7293956830
  O        10.1177294181       -0.0025535837        7.7024535027
  O         8.4282487366        2.9236847362        7.7024413674
  O         6.7553188471        5.8327122862        7.6916679083
  O         5.0573677719        8.7735727847        7.6916921776
  O         1.6855598990        0.9734069066       16.4209722576
  O         0.0028702042        3.8947937486       16.4192780206
  O        -1.6857763456        6.8127504429       16.4210133933
  O        -3.3714987974        9.7329269031       16.4245635409
  O         5.0573416761        0.9731997251       16.4245813571
  O         3.3880616866        3.9044439880       16.4097383562
  O         1.7038218627        6.8216579653       16.4097314030
  O        -0.0000536267        9.7329482194       16.4246053140
  O         8.4291136682        0.9734190380       16.4210171235
  O         6.7266400068        3.9044526206       16.4097680968
  O         5.0573777086        6.8130209855       16.4672242485
  O         3.3730973540        9.7129383365       16.4097707838
  O        11.8004968978        0.9700275805       16.4192980753
  O        10.1118484634        3.8948078051       16.4193104127
  O         8.4109153179        6.8216787820       16.4097632717
  O         6.7415786728        9.7129459114       16.4097340103
  O         0.0000112212        1.9465803269       25.1486393863
  O        -1.6857541785        4.8664217725       25.1486641793
  O        -3.3718731492        7.7862196722       25.1488574755
  O        -5.0575742238       10.7059691244       25.1488490985
  O         3.3716199033        1.9468659431       25.1488549349
  O         1.6859613598        4.8665401500       25.1485034204
  O         0.0002862612        7.7861961969       25.1488769492
  O        -1.6858103153       10.7061706519       25.1486456021
  O         6.7431020033        1.9468675156       25.1488608795
  O         5.0574048195        4.8666241464       25.1492521923
  O         3.3717478308        7.7861787759       25.1492547158
  O         1.6860313934       10.7059838765       25.1488835524
  O        10.1146831929        1.9466185955       25.1486662151
  O         8.4287029546        4.8665409799       25.1485065028
  O         6.7429601769        7.7862330528       25.1492813024
  O         5.0573901604       10.7059236659       25.1484730588
  O         0.0000690083       -0.0051080189       18.5881642042
  O        -1.6858016542        2.9198752864       18.5902976245
  O        -3.3759729015        5.8423289698       18.5881848435
  O        -5.0513989712        8.7629902910       18.5958966822
  O         3.3702787273        0.0007343537       18.5930414772
  O         1.6901936370        2.9223648664       18.5881517646
  O         0.0043430979        5.8423232658       18.5881418231
  O        -1.6858029894        8.7580837454       18.5930505456
  O         6.7444394581        0.0007483184       18.5930557970
  O         5.0573886389        2.9129655292       18.5958754491
  O         3.3659869762        5.8365179178       18.5982087283
  O         1.6797920345        8.7630432694       18.5958781500
  O        10.1146460070       -0.0050911205       18.5881711116
  O         8.4244413858        2.9223649165       18.5881677591
  O         6.7487748580        5.8365151637       18.5982124897
  O         5.0573317120        8.7660773383       18.5982161660
  O         1.6862957126        0.9729549267        1.1451786044
  O         0.0002687903        3.8933575959        1.1446174635
  O        -1.6857456099        6.8135866697        1.1452038806
  O        -3.3716248408        9.7328544654        1.1452352449
  O         5.0574109054        0.9733506702        1.1452432901
  O         3.3717255396        3.8944165621        1.1446735658
  O         1.6869690377        6.8125549466        1.1446944954
  O         0.0000786179        9.7328478366        1.1452599239
  O         8.4284329679        0.9729943680        1.1452318066
  O         6.7430106216        3.8943708884        1.1446817750
  O         5.0573405667        6.8130526076        1.1449707410
  O         3.3725585840        9.7321077607        1.1447288413
  O        11.8004520822        0.9729711888        1.1446382039
  O        10.1143818218        3.8932901778        1.1446225854
  O         8.4277454551        6.8125214007        1.1446747984
  O         6.7421464493        9.7320701147        1.1446725494
  O         0.0017063479        1.9456208950        9.8701020312
  O        -1.6857889383        4.8683870585        9.8701000206
  O        -3.3792791621        7.7876262882        9.8673992047
  O        -5.0600839702       10.6988013083        9.8673819675
  O         3.3765560674        1.9526030633        9.8673874460
  O         1.6928790030        4.8704956453        9.8755635194
  O         0.0076972415        7.7876152866        9.8673650059
  O        -1.6857688875       10.7061614669        9.8684311983
  O         6.7381085710        1.9526549015        9.8673586535
  O         5.0573856693        4.9939810756        9.9539518334
  O         3.4819845998        7.7225652115        9.9540044598
  O         1.6885060694       10.6988241832        9.8673463846
  O        10.1130119534        1.9455958502        9.8701072220
  O         8.4218895415        4.8705449801        9.8755834044
  O         6.6327603760        7.7225365684        9.9539262600
  O         5.0573737224       10.6980338569        9.8755677561
  O        -0.0000432833        0.0001635945       22.5819539969
  O        -1.6857897700        2.9198726905       22.5809477758
  O        -3.3714687555        5.8395954643       22.5819999501
  O        -5.0581477015        8.7591340192       22.5844394728
  O         3.3714626824        0.0000507341       22.5824923005
  O         1.6856319306        2.9198402648       22.5819521969
  O        -0.0001142335        5.8396163649       22.5819424199
  O        -1.6857887137        8.7594453892       22.5825202893
  O         6.7432611356        0.0000714483       22.5825278638
  O         5.0573500900        2.9207964509       22.5844077853
  O         3.3722074496        5.8400920603       22.5842837197
  O         1.6865962517        8.7591364653       22.5844428051
  O        10.1147580350        0.0001769805       22.5819552174
  O         8.4290899493        2.9198181262       22.5819602799
  O         6.7425124630        5.8400832489       22.5843052655
  O         5.0573690718        8.7588488180       22.5843031550
  O         1.6852796132        0.9735936121        5.1373751835
  O         0.0004641757        3.8934070634        5.1362452364
  O        -1.6857880278        6.8124269107        5.1374186753
  O        -3.3761823185        9.7301933155        5.1430873384
  O         5.0573609210        0.9786249579        5.1430873564
  O         3.3727689249        3.8893865920        5.1376460959
  O         1.6830854853        6.8159409212        5.1376425811
  O         0.0046557943        9.7302089272        5.1430984351
  O         8.4294169522        0.9735861578        5.1374182502
  O         6.7419472359        3.8893450125        5.1376412396
  O         5.0573711643        6.8129872903        5.1457747837
  O         3.3677000919        9.7337421996        5.1376517192
  O        11.8004836688        0.9727456606        5.1362624327
  O        10.1142636579        3.8934269117        5.1362451843
  O         8.4316074379        6.8159430633        5.1376380892
  O         6.7470108047        9.7337351117        5.1376411480
  O         0.0019238716        1.9454755119       13.8529199695
  O        -1.6857985244        4.8686915602       13.8529280930
  O        -3.3826134668        7.7874300132       13.8598559187
  O        -5.0619177215       10.6960527607       13.8598106270
  O         3.3780605821        1.9556080995       13.8598700894
  O         1.6955321129        4.8721125103       13.8431070079
  O         0.0110181923        7.7874128405       13.8598535201
  O        -1.6857954123       10.7061570026       13.8555039231
  O         6.7366494035        1.9555491509       13.8598438984
  O         5.0573756060        4.9830881568       13.7337466314
  O         3.4726165855        7.7280054458       13.7336576838
  O         1.6903499303       10.6960790319       13.8598538886
  O        10.1128239440        1.9454705388       13.8529218775
  O         8.4191336338        4.8720650501       13.8431326244
  O         6.6421629139        7.7279887019       13.7337368769
  O         5.0573295164       10.6948414233       13.8431551993
     335
 i =        6, E =    -12260.0331125112
 Zn        -0.0002195923        0.0014910573        5.6917144384
 Zn        -1.6857857823        2.9198525484        5.6891579486
 Zn        -3.3703776039        5.8388062710        5.6917544401
 Zn        -5.0600972817        8.7579833381        5.6994853832
 Zn         3.3710518954        0.0002986408        5.6904336949
 Zn         1.6843950898        2.9193044134        5.6917253691
 Zn        -0.0011915428        5.8388032360        5.6917071691
 Zn        -1.6857582407        8.7589832343        5.6904343247
 Zn         6.7436739403        0.0002902046        5.6904407983
 Zn         5.0573544879        2.9230588392        5.6994610539
 Zn         3.3658703246        5.8364635645        5.6729571819
 Zn         1.6885602562        8.7579985178        5.6994354972
 Zn        10.1149137657        0.0014779597        5.6917268863
 Zn         8.4303422434        2.9193063324        5.6917224489
 Zn         6.7488502120        5.8364141255        5.6729352964
 Zn         5.0573439508        8.7661503839        5.6729391475
 Zn         1.6852401484        0.9736026015       14.4280256417
 Zn        -0.0019857341        3.8920499798       14.4232085550
 Zn        -1.6858063068        6.8123983928       14.4281169743
 Zn        -3.3681454297        9.7348596988       14.4324269718
 Zn         5.0573538033        0.9693319528       14.4324389369
 Zn         3.3611116410        3.8911752145       14.4233200845
 Zn         1.6787841010        6.8049829444       14.4233562329
 Zn        -0.0034093719        9.7348690383       14.4325008451
 Zn         8.4294915299        0.9736325413       14.4281172802
 Zn         6.7536387656        3.8911178465       14.4233969855
 Zn         5.0573542665        6.8130208932       14.5176342822
 Zn         3.3750248779        9.7429647585       14.4234221541
 Zn        11.8005004198        0.9755256514       14.4232541781
 Zn        10.1166578788        3.8920323903       14.4232878905
 Zn         8.4359045897        6.8049342346       14.4233871769
 Zn         6.7396463644        9.7429363788       14.4233383910
 Zn        -0.0001703896        1.9466688088       23.1485627465
 Zn        -1.6858013645        4.8662707494       23.1485810073
 Zn        -3.3708092730        7.7857908873       23.1487298134
 Zn        -5.0573964763       10.7070648230       23.1487171469
 Zn         3.3707643235        1.9461744971       23.1487394496
 Zn         1.6844456545        4.8656839876       23.1486652388
 Zn        -0.0007500963        7.7858249742       23.1487613579
 Zn        -1.6857569543       10.7061472051       23.1481644866
 Zn         6.7439570876        1.9461705489       23.1487658206
 Zn         5.0573694293        4.8659637029       23.1508491438
 Zn         3.3711527805        7.7865395388       23.1508563398
 Zn         1.6858505817       10.7070829204       23.1487930518
 Zn        10.1148507295        1.9466728240       23.1485988923
 Zn         8.4302621986        4.8656446157       23.1486730550
 Zn         6.7435576790        7.7865201528       23.1508595932
 Zn         5.0573376829       10.7077110339       23.1486548503
 In        -0.0000042396        0.0002724835        0.0515128769
 In        -1.6857664348        2.9198354516        0.0517040085
 In        -3.3713527678        5.8396513179        0.0514597311
 In        -5.0568260501        8.7598407806        0.0518222355
 In         3.3718241213       -0.0001072741        0.0512880313
 In         1.6855967030        2.9196955569        0.0515271953
 In        -0.0002360334        5.8396377415        0.0514484546
 In        -1.6857964052        8.7598418079        0.0512476912
 In         6.7429154587       -0.0001436246        0.0512099124
 In         5.0573330543        2.9193248061        0.0518651578
 In         3.3713797927        5.8395670436        0.0502922055
 In         1.6853051239        8.7599010353        0.0517803593
 In        10.1147127386        0.0002316832        0.0514224730
 In         8.4291171849        2.9197305807        0.0514302276
 In         6.7433613004        5.8395934770        0.0502759466
 In         5.0573129029        8.7598653364        0.0502696580
 In         1.6846739204        0.9739106828        8.7659614741
 In        -0.0055136903        3.8899692461        8.7691442227
 In        -1.6857714311        6.8117413333        8.7658949227
 In        -3.3707862772        9.7333281606        8.7710723177
 In         5.0573580314        0.9723937027        8.7711015931
 In         3.3583139481        3.8927927998        8.7801354661
 In         1.6788099595        6.8017291417        8.7801439941
 In        -0.0007841122        9.7333036107        8.7710667506
 In         8.4300130580        0.9739366961        8.7659181090
 In         6.7564305163        3.8927636079        8.7800841803
 In         5.0573704523        6.8130071077        8.6783822893
 In         3.3778689125        9.7445555685        8.7801416200
 In        11.8005074414        0.9796474284        8.7691632407
 In        10.1202182165        3.8899550968        8.7690973735
 In         8.4359251792        6.8017073762        8.7800550611
 In         6.7368551222        9.7445843155        8.7801507333
 In         0.0002726874        1.9464067094       17.5067906275
 In        -1.6858058672        4.8667481610       17.5067131652
 In        -3.3700378240        7.7873130021       17.5026570755
 In        -5.0557223117       10.7069881391       17.5027326395
 In         3.3716717842        1.9447884039       17.5027419664
 In         1.6866727311        4.8669515612       17.5008488915
 In        -0.0014964036        7.7873097175       17.5026650298
 In        -1.6857835413       10.7061672047       17.5136031444
 In         6.7430137064        1.9447684910       17.5026616756
 In         5.0573283990        4.8583936563       17.5450218718
 In         3.3645730245        7.7903144021       17.5450118285
 In         1.6841853090       10.7069637448       17.5026507035
 In        10.1144242205        1.9464119855       17.5066752208
 In         8.4280838855        4.8669264652       17.5007338625
 In         6.7500847648        7.7903289133       17.5449888751
 In         5.0573294498       10.7052075259       17.5007779096
 Ga         0.0002295358       -0.0001871303       20.5779545166
 Ga        -1.6856823057        2.9198207116       20.5778181706
 Ga        -3.3716540566        5.8399881672       20.5780364133
 Ga        -5.0558338702        8.7605659139       20.5840452629
 Ga         3.3712907784        0.0001173785       20.5788004454
 Ga         1.6861296218        2.9197908748       20.5779390483
 Ga         0.0002086558        5.8399541188       20.5779664293
 Ga        -1.6858516801        8.7594318029       20.5788465544
 Ga         6.7432453856        0.0000914233       20.5788535887
 Ga         5.0572313022        2.9181468916       20.5839720439
 Ga         3.3698378006        5.8387145124       20.5860574654
 Ga         1.6842810736        8.7603875587       20.5840006384
 Ga        10.1146274004       -0.0002790047       20.5779998172
 Ga         8.4286117914        2.9198645625       20.5780179179
 Ga         6.7447470953        5.8388084017       20.5861067501
 Ga         5.0573861855        8.7615326554       20.5860947106
 Ga         1.6858641748        0.9733459316        3.1242189024
 Ga        -0.0000455761        3.8930710989        3.1238217709
 Ga        -1.6857667671        6.8130615624        3.1242904830
 Ga        -3.3719569155        9.7326474305        3.1247478077
 Ga         5.0572377494        0.9737566458        3.1247490526
 Ga         3.3717138180        3.8913098410        3.1225260269
 Ga         1.6842858191        6.8139799340        3.1225908648
 Ga         0.0003923621        9.7326876924        3.1248176469
 Ga         8.4288592040        0.9732584605        3.1243365845
 Ga         6.7429392404        3.8913677998        3.1225599938
 Ga         5.0573146487        6.8129210465        3.1213096917
 Ga         3.3699581915        9.7336721734        3.1226077090
 Ga        11.8005853861        0.9734114794        3.1238371528
 Ga        10.1148165126        3.8930694638        3.1238550201
 Ga         8.4304642840        6.8140592136        3.1225459287
 Ga         6.7447287661        9.7337194176        3.1225359965
 Ga        -0.0012884865        1.9473010625       11.8501868234
 Ga        -1.6856837489        4.8648641678       11.8502233042
 Ga        -3.3437238975        7.7958925858       11.8522538862
 Ga        -5.0352646635       10.7254902219       11.8521976654
 Ga         3.3659789320        1.9178812596       11.8522113708
 Ga         1.6784614137        4.8622159462       11.8490246180
 Ga        -0.0278654488        7.7958711352       11.8522002477
 Ga        -1.6858202396       10.7062004805       11.8502898896
 Ga         6.7487081402        1.9178049827       11.8521821492
 Ga         5.0575106791        4.6880094267       11.8320851571
 Ga         3.2167000607        7.8757636334       11.8320880619
 Ga         1.6635327039       10.7255019770       11.8521762012
 Ga        10.1160438732        1.9473205623       11.8502059784
 Ga         8.4363028295        4.8621650289       11.8490664698
 Ga         6.8979226338        7.8754109603       11.8320480504
 Ga         5.0573942467       10.7146312197       11.8490257597
  O         0.0001935797       -0.0003481018        3.1540380862
  O        -1.6857440875        2.9198765299        3.1535570974
  O        -3.3718242615        5.8399783116        3.1539609417
  O        -5.0571899788        8.7597373001        3.1535707506
  O         3.3727621807       -0.0007406647        3.1570528834
  O         1.6861891018        2.9200013623        3.1540420897
  O         0.0002815837        5.8399716621        3.1539184491
  O        -1.6857726305        8.7610313929        3.1569787933
  O         6.7418091460       -0.0006643306        3.1569284565
  O         5.0573467533        2.9196209682        3.1536096448
  O         3.3719878261        5.8399308558        3.1587949257
  O         1.6855872017        8.7596719726        3.1534714897
  O        10.1146482160       -0.0003420568        3.1539290314
  O         8.4285001413        2.9199943861        3.1538434260
  O         6.7427244004        5.8400097747        3.1587621681
  O         5.0573659184        8.7590012183        3.1587558768
  O         1.6854113426        0.9735743098       11.8757893477
  O         0.0004591042        3.8933246523       11.8743259619
  O        -1.6858027715        6.8124610595       11.8757129746
  O        -3.3683236891        9.7348223242       11.8744503354
  O         5.0573293675        0.9695105977       11.8744734284
  O         3.3475514191        3.8471516151       11.8716421948
  O         1.6336925378        6.8152103913       11.8716293267
  O        -0.0033557158        9.7347880509       11.8745679186
  O         8.4293157909        0.9735867837       11.8757754541
  O         6.7673068034        3.8470545738       11.8716356849
  O         3.3436342947        9.7769556336       11.8716208547
  O        11.8005120308        0.9728252619       11.8743284152
  O        10.1143626286        3.8933791102       11.8742939786
  O         8.4810586350        6.8151302280       11.8716274531
  O         6.7710476408        9.7766935023       11.8716590529
  O         0.0008745855        1.9461092947       20.5928706022
  O        -1.6857372249        4.8673315079       20.5928046882
  O        -3.3720200366        7.7859166710       20.5972959678
  O        -5.0579171273       10.7060561446       20.5973952480
  O         3.3714206077        1.9470607088       20.5974439571
  O         1.6848280789        4.8657891020       20.5977874027
  O         0.0003298394        7.7859030954       20.5973739571
  O        -1.6858884209       10.7062090332       20.5960792186
  O         6.7431993016        1.9471527866       20.5973333700
  O         5.0573336693        4.8662131674       20.5924716591
  O         3.3714162986        7.7863848324       20.5925255305
  O         1.6863248127       10.7060115230       20.5973164106
  O        10.1139342089        1.9461264374       20.5927741544
  O         8.4298580965        4.8659356577       20.5976277671
  O         6.7433957307        7.7864618474       20.5924067926
  O         5.0574665775       10.7072909359       20.5977444572
  O        -0.0034912112       -0.0011991121        7.7015676226
  O        -1.6857645827        2.9198428576        7.6970581486
  O        -3.3743414574        5.8373277922        7.7016013246
  O        -5.0954779211        8.7375827254        7.7313707583
  O         3.3711966726        0.0002580482        7.6994861762
  O         1.6851221727        2.9234815124        7.7015714268
  O         0.0028396489        5.8372660065        7.7015610668
  O        -1.6857916093        8.7591607198        7.6994759756
  O         6.7435107184        0.0002213567        7.6994865682
  O         5.0572845141        2.9638821027        7.7313572502
  O         3.3659234540        5.8364992982        7.6999782546
  O         1.7239239285        8.7375921718        7.7313286096
  O        10.1182109865       -0.0012352467        7.7015806081
  O         8.4296345435        2.9234359100        7.7015696521
  O         6.7488374812        5.8364792569        7.6999557179
  O         5.0573772826        8.7661257375        7.6999793411
  O         1.6855628690        0.9734356664       16.4210119948
  O         0.0028507776        3.8947681678       16.4185606278
  O        -1.6857761379        6.8127447924       16.4210818013
  O        -3.3713840263        9.7329997831       16.4247947369
  O         5.0573380822        0.9730619260       16.4248133353
  O         3.3887947264        3.9054823829       16.4096774731
  O         1.7050906826        6.8217550467       16.4096986254
  O        -0.0002030247        9.7330173445       16.4248730388
  O         8.4290743805        0.9734098766       16.4211031258
  O         6.7258929394        3.9055054437       16.4097360724
  O         5.0573872508        6.8130229952       16.4542512135
  O         3.3736571696        9.7117493415       16.4097658001
  O        11.8005531926        0.9700541060       16.4185885277
  O        10.1118980744        3.8948112259       16.4186065170
  O         8.4096205494        6.8218057903       16.4097247707
  O         6.7410418135        9.7117778703       16.4096987317
  O        -0.0000163811        1.9466173156       25.1485256340
  O        -1.6857508310        4.8663628025       25.1485477755
  O        -3.3718588625        7.7861793537       25.1487326615
  O        -5.0576191436       10.7060090253       25.1487346094
  O         3.3715454407        1.9468480120       25.1487473429
  O         1.6857940011        4.8664666808       25.1483049492
  O         0.0002633696        7.7861076588       25.1487760204
  O        -1.6858340624       10.7061821388       25.1484180650
  O         6.7431781596        1.9468927932       25.1487806599
  O         5.0574090197        4.8666136568       25.1490806276
  O         3.3717358099        7.7861860088       25.1490960325
  O         1.6860606663       10.7060655904       25.1487907619
  O        10.1147070825        1.9466595253       25.1485671326
  O         8.4288361812        4.8664431522       25.1482989434
  O         6.7429736213        7.7862576317       25.1491020112
  O         5.0574170971       10.7060483659       25.1482801360
  O         0.0000140150       -0.0055450684       18.5866191291
  O        -1.6858217454        2.9199021397       18.5892060629
  O        -3.3763587293        5.8425411527       18.5866874469
  O        -5.0516539049        8.7628014193       18.5948111134
  O         3.3700439932        0.0008947906       18.5922998169
  O         1.6905207494        2.9225863270       18.5865942396
  O         0.0046764519        5.8425230169       18.5866053073
  O        -1.6857944695        8.7577466379       18.5923366066
  O         6.7447447856        0.0009133513       18.5923397775
  O         5.0574384052        2.9132337378       18.5947625228
  O         3.3661818639        5.8366335898       18.5979913663
  O         1.6800486040        8.7629312867       18.5947916748
  O        10.1146331799       -0.0055033036       18.5866606892
  O         8.4240879947        2.9225893464       18.5866684537
  O         6.7486409309        5.8366032508       18.5980384641
  O         5.0573663108        8.7658731404       18.5980133992
  O         1.6863891146        0.9728792179        1.1451945217
  O         0.0000925664        3.8932870465        1.1445665864
  O        -1.6857256156        6.8136716169        1.1452589357
  O        -3.3714361462        9.7329962550        1.1452968648
  O         5.0574501166        0.9730871493        1.1453096777
  O         3.3716304601        3.8942512455        1.1447200443
  O         1.6867440839        6.8125779077        1.1447581212
  O        -0.0001340067        9.7329678815        1.1453727924
  O         8.4283327626        0.9729944896        1.1453003203
  O         6.7431304682        3.8941816482        1.1447383580
  O         5.0573639591        6.8130923534        1.1453195419
  O         3.3724476900        9.7322340016        1.1447962459
  O        11.8004111862        0.9731680919        1.1446000174
  O        10.1145325384        3.8931804830        1.1445992519
  O         8.4278834011        6.8125510238        1.1447301743
  O         6.7422746904        9.7321796406        1.1446989705
  O         0.0015481981        1.9457265067        9.8703410136
  O        -1.6858237332        4.8682199008        9.8703785164
  O        -3.3756788495        7.7892324658        9.8675992202
  O        -5.0568392789       10.7011333524        9.8675702286
  O         3.3761391065        1.9486857498        9.8675616161
  O         1.6927489785        4.8704018762        9.8760678861
  O         0.0040527214        7.7892413571        9.8675487624
  O        -1.6857865200       10.7061778047        9.8696431409
  O         6.7385286005        1.9486809016        9.8675450197
  O         5.0573911508        4.9777616071        9.9554572146
  O         3.4679372461        7.7306813162        9.9555160535
  O         1.6852836020       10.7012076628        9.8675099031
  O        10.1131754653        1.9457037531        9.8703567553
  O         8.4220394873        4.8704870370        9.8761092466
  O         6.6468103233        7.7306075275        9.9554257607
  O         5.0573566168       10.6981704135        9.8760842301
  O        -0.0000027480        0.0003738880       22.5817302208
  O        -1.6858041953        2.9198724835       22.5802376314
  O        -3.3712576629        5.8395307035       22.5817850909
  O        -5.0582082061        8.7590851685       22.5845056466
  O         3.3715916068       -0.0000096019       22.5823261053
  O         1.6854430582        2.9196783993       22.5817211932
  O        -0.0003473354        5.8395473281       22.5817419981
  O        -1.6857871220        8.7595835557       22.5823565513
  O         6.7431491831        0.0000015094       22.5823678060
  O         5.0573723843        2.9208558580       22.5844445461
  O         3.3723002983        5.8401417672       22.5844717744
  O         1.6866408670        8.7591166935       22.5844716103
  O        10.1146971421        0.0004033279       22.5817495425
  O         8.4292576843        2.9196668457       22.5817636235
  O         6.7424380510        5.8401198929       22.5845192421
  O         5.0573683939        8.7587553822       22.5845097117
  O         1.6853572142        0.9735283216        5.1379134732
  O         0.0006854598        3.8935484375        5.1368411819
  O        -1.6857902373        6.8125198609        5.1379659865
  O        -3.3765592620        9.7299816821        5.1439079252
  O         5.0573777583        0.9790608032        5.1439135643
  O         3.3728931451        3.8904527875        5.1386334570
  O         1.6840756292        6.8155231047        5.1386749512
  O         0.0050166556        9.7299856175        5.1439604353
  O         8.4293502915        0.9735342195        5.1379978995
  O         6.7418313998        3.8904097375        5.1386471359
  O         5.0573708010        6.8130080581        5.1443963716
  O         3.3685526668        9.7330980205        5.1386757496
  O        11.8004677978        0.9724928815        5.1368425845
  O        10.1140273384        3.8935685394        5.1368625973
  O         8.4306264688        6.8155064113        5.1386394402
  O         6.7461652105        9.7330803017        5.1386414614
  O         0.0019579792        1.9454565913       13.8525832720
  O        -1.6858210230        4.8687303582       13.8526057299
  O        -3.3808381054        7.7884931151       13.8610229239
  O        -5.0600921705       10.6970294357       13.8609698784
  O         3.3781101290        1.9535178804       13.8609884878
  O         1.6963406279        4.8725601887       13.8422256873
  O         0.0092139596        7.7885075388       13.8609898643
  O        -1.6857863809       10.7061630697       13.8552541692
  O         6.7366108246        1.9535094288       13.8609792354
  O         5.0574186375        4.9711353890       13.7319123192
  O         3.4622326230        7.7339970881       13.7318547605
  O         1.6885159512       10.6970873954       13.8609723232
  O        10.1127713926        1.9454615992       13.8525864702
  O         8.4183517203        4.8725257868       13.8422626311
  O         6.6525352336        7.7339438021       13.7318705838
  O         5.0573354139       10.6939234417       13.8422550434
     335
 i =        7, E =    -12260.0343339614
 Zn        -0.0002206811        0.0013336405        5.6908228927
 Zn        -1.6857723997        2.9198554346        5.6880951634
 Zn        -3.3705170472        5.8388544089        5.6908095160
 Zn        -5.0602328239        8.7579355562        5.6995678940
 Zn         3.3713939127        0.0000911868        5.6896992771
 Zn         1.6845100021        2.9193991213        5.6908372185
 Zn        -0.0010361732        5.8388493350        5.6908037372
 Zn        -1.6857723593        8.7594032728        5.6896872712
 Zn         6.7432930714        0.0001066542        5.6896976761
 Zn         5.0573500201        2.9231933400        5.6995775526
 Zn         3.3687595881        5.8381074677        5.6778263544
 Zn         1.6886788407        8.7579238244        5.6995472645
 Zn        10.1149575805        0.0013300792        5.6908201120
 Zn         8.4302127832        2.9194012536        5.6907878590
 Zn         6.7459593211        5.8381001638        5.6777874702
 Zn         5.0573669880        8.7628115431        5.6778009061
 Zn         1.6844845877        0.9740524843       14.4307830249
 Zn        -0.0027528919        3.8915767576       14.4233620515
 Zn        -1.6858026346        6.8115287813       14.4308357504
 Zn        -3.3669537993        9.7355692605       14.4349192757
 Zn         5.0573463906        0.9679606771       14.4349198609
 Zn         3.3592205277        3.8876949004       14.4253722324
 Zn         1.6748102901        6.8050913782       14.4253816739
 Zn        -0.0046320229        9.7355697005       14.4349580265
 Zn         8.4302247719        0.9740589544       14.4307844680
 Zn         6.7555281447        3.8876413271       14.4254275985
 Zn         5.0573321091        6.8130300575       14.4948672581
 Zn         3.3729527414        9.7463468652       14.4254053108
 Zn        11.8005037338        0.9764542596       14.4233718997
 Zn        10.1174698316        3.8915692138       14.4233803864
 Zn         8.4398886608        6.8050455301       14.4254017699
 Zn         6.7417261140        9.7462914071       14.4253564449
 Zn        -0.0001247806        1.9466545713       23.1487015314
 Zn        -1.6857770177        4.8662839598       23.1486794734
 Zn        -3.3705616685        7.7855743819       23.1488566919
 Zn        -5.0574691609       10.7074138844       23.1488779752
 Zn         3.3704317300        1.9460604572       23.1488878111
 Zn         1.6837901622        4.8652766448       23.1489416297
 Zn        -0.0010075962        7.7855895781       23.1488504256
 Zn        -1.6857838170       10.7061611575       23.1482031357
 Zn         6.7442556620        1.9460651592       23.1488628475
 Zn         5.0573573797        4.8656414306       23.1517985128
 Zn         3.3708915777        7.7866868703       23.1517790681
 Zn         1.6859162648       10.7074103276       23.1488689906
 Zn        10.1148432057        1.9466594307       23.1486749237
 Zn         8.4309104070        4.8652794771       23.1489274543
 Zn         6.7438193932        7.7867027512       23.1517959517
 Zn         5.0573706107       10.7084684649       23.1489163045
 In         0.0000364438        0.0002527968        0.0511148794
 In        -1.6857828646        2.9198617185        0.0514134778
 In        -3.3713231744        5.8396297769        0.0510993527
 In        -5.0567226841        8.7599602927        0.0515497184
 In         3.3718360491       -0.0001452260        0.0507301035
 In         1.6855618627        2.9196826696        0.0511087090
 In        -0.0002547246        5.8396313359        0.0510629061
 In        -1.6857919328        8.7598899016        0.0507686248
 In         6.7428876513       -0.0001391183        0.0507514778
 In         5.0573517466        2.9191367172        0.0516086131
 In         3.3711298404        5.8394733964        0.0498974649
 In         1.6851472619        8.7599578284        0.0515960349
 In        10.1146783432        0.0002745113        0.0510935569
 In         8.4291294958        2.9196982144        0.0511059786
 In         6.7435530543        5.8394873683        0.0499029204
 In         5.0573298128        8.7600807047        0.0498988288
 In         1.6854282867        0.9734979333        8.7634326129
 In        -0.0063036997        3.8895122292        8.7681209930
 In        -1.6857723722        6.8126173062        8.7634387296
 In        -3.3697479199        9.7339463363        8.7700373482
 In         5.0573457769        0.9711955908        8.7700731761
 In         3.3575511505        3.8907812163        8.7785938792
 In         1.6767059255        6.8020899044        8.7786412212
 In        -0.0018333213        9.7339388824        8.7699879934
 In         8.4292594992        0.9734915718        8.7634021887
 In         6.7571801336        3.8907678101        8.7785566625
 In         5.0573641370        6.8130278070        8.7039632231
 In         3.3765027649        9.7462114243        8.7786377508
 In        11.8005034147        0.9805833814        8.7681602647
 In        10.1210333839        3.8895011103        8.7681276540
 In         8.4380246172        6.8020669431        8.7785491561
 In         6.7381944731        9.7462235998        8.7786433586
 In         0.0004860980        1.9462956714       17.5066910183
 In        -1.6857821592        4.8669997591       17.5066970954
 In        -3.3707243420        7.7878292698       17.5022026436
 In        -5.0556164765       10.7061440466       17.5022026644
 In         3.3724527264        1.9450862875       17.5021745696
 In         1.6868020578        4.8670321858       17.4986192388
 In        -0.0008454223        7.7878051404       17.5022211792
 In        -1.6857866815       10.7061783715       17.5155453520
 In         6.7422503977        1.9450821314       17.5022179964
 In         5.0573641014        4.8623448791       17.5406762540
 In         3.3680280639        7.7883331821       17.5406526438
 In         1.6840567492       10.7061405559       17.5022720573
 In        10.1141995597        1.9462946070       17.5066616624
 In         8.4279138009        4.8670313448       17.4986470579
 In         6.7466792834        7.7883681355       17.5406751742
 In         5.0573545924       10.7049900182       17.4986148078
 Ga         0.0001703744       -0.0005303506       20.5779933393
 Ga        -1.6858135919        2.9198726795       20.5779799850
 Ga        -3.3719352901        5.8401438199       20.5779857934
 Ga        -5.0559950054        8.7603477078       20.5840966440
 Ga         3.3713513997        0.0001306097       20.5790101669
 Ga         1.6863038477        2.9199668422       20.5779939737
 Ga         0.0003265361        5.8401511242       20.5779882122
 Ga        -1.6857794267        8.7593130698       20.5790051428
 Ga         6.7433898724        0.0001282700       20.5790092371
 Ga         5.0573835464        2.9182981869       20.5840555484
 Ga         3.3701309329        5.8389084094       20.5872597760
 Ga         1.6844209071        8.7603910291       20.5840521007
 Ga        10.1145035851       -0.0004970731       20.5779880778
 Ga         8.4283895539        2.9199602323       20.5779778774
 Ga         6.7446125927        5.8388832614       20.5872507818
 Ga         5.0573529411        8.7612669537       20.5872569847
 Ga         1.6857501720        0.9732830673        3.1247807653
 Ga         0.0002030038        3.8932873667        3.1243320507
 Ga        -1.6857844412        6.8129818885        3.1247705695
 Ga        -3.3722786117        9.7324645284        3.1250839351
 Ga         5.0573838834        0.9741114577        3.1250859547
 Ga         3.3719263048        3.8921216344        3.1237841412
 Ga         1.6850561771        6.8138597080        3.1237683011
 Ga         0.0007229120        9.7324625729        3.1250727681
 Ga         8.4289487702        0.9733062429        3.1247675961
 Ga         6.7427922184        3.8920919942        3.1237776186
 Ga         5.0573537708        6.8130309250        3.1220099166
 Ga         3.3704703628        9.7330876977        3.1237755992
 Ga        11.8004613150        0.9730425847        3.1243355987
 Ga        10.1144914816        3.8932824325        3.1243213180
 Ga         8.4296395413        6.8138394917        3.1237701863
 Ga         6.7442301716        9.7330745152        3.1237773597
 Ga        -0.0037393241        1.9487432122       11.8483488343
 Ga        -1.6857844729        4.8621359856       11.8483439123
 Ga        -3.3288160926        7.7990906829       11.8514874723
 Ga        -5.0250496660       10.7367539432       11.8514773759
 Ga         3.3613478902        1.9034773560       11.8514836093
 Ga         1.6769134477        4.8613264983       11.8476389242
 Ga        -0.0427934323        7.7991278316       11.8514863695
 Ga        -1.6858085886       10.7061829321       11.8495995061
 Ga         6.7533719073        1.9033632097       11.8514599188
 Ga         5.0576180907        4.6447430423       11.8360145179
 Ga         3.1790379315        7.8975331174       11.8360207482
 Ga         1.6532428854       10.7368431024       11.8514791432
 Ga        10.1184389545        1.9487210355       11.8483476376
 Ga         8.4378963585        4.8612740846       11.8476486376
 Ga         6.9354689314        7.8969804385       11.8359768881
 Ga         5.0573590107       10.7163969102       11.8476409456
  O         0.0002495358       -0.0009398669        3.1537384201
  O        -1.6857839681        2.9198693715        3.1534379292
  O        -3.3722326884        5.8404194061        3.1537140610
  O        -5.0573112005        8.7595886054        3.1532778121
  O         3.3732403876       -0.0009506306        3.1569587754
  O         1.6867144240        2.9200963379        3.1537333241
  O         0.0006793698        5.8404359845        3.1537243741
  O        -1.6857782154        8.7614982225        3.1569346670
  O         6.7414964896       -0.0009655677        3.1569462112
  O         5.0573567382        2.9198369808        3.1532699846
  O         3.3722699065        5.8401557158        3.1580046622
  O         1.6857525944        8.7596047137        3.1532852006
  O        10.1144276104       -0.0009448955        3.1537232547
  O         8.4279962870        2.9201050558        3.1537181504
  O         6.7424260126        5.8401255906        3.1579982192
  O         5.0573443946        8.7587848167        3.1580047957
  O         1.6814975598        0.9758364123       11.8774351961
  O        -0.0001526452        3.8930888618       11.8757918083
  O        -1.6857947043        6.8080024944       11.8774300745
  O        -3.3662763682        9.7359717259       11.8755876211
  O         5.0573526628        0.9671721302       11.8755523946
  O         3.3392666382        3.8306269771       11.8728769069
  O         1.6150753053        6.8162956568       11.8728805993
  O        -0.0053786597        9.7359727965       11.8755500519
  O         8.4332056941        0.9758606439       11.8774383861
  O         6.7757228610        3.8304771128       11.8728411800
  O         3.3333500048        9.7925389523       11.8728734257
  O        11.8004906660        0.9734497436       11.8757937797
  O        10.1148865119        3.8930369351       11.8758074951
  O         8.4996602314        6.8161889779       11.8728680794
  O         6.7812463575        9.7921787486       11.8728481796
  O         0.0010554842        1.9459452574       20.5909301189
  O        -1.6857919398        4.8676793830       20.5909340616
  O        -3.3721131271        7.7858256214       20.5966642151
  O        -5.0580363740       10.7059216298       20.5966293571
  O         3.3714431096        1.9472983973       20.5966551922
  O         1.6848646758        4.8659354754       20.5968170605
  O         0.0005507313        7.7858274127       20.5966520329
  O        -1.6857619565       10.7061591816       20.5949952263
  O         6.7432867143        1.9472754399       20.5966559201
  O         5.0573726191        4.8662498620       20.5920116128
  O         3.3713949911        7.7864116438       20.5920517271
  O         1.6864838218       10.7059388845       20.5966592994
  O        10.1136139702        1.9459502499       20.5909248697
  O         8.4298450217        4.8658897183       20.5968322776
  O         6.7433063859        7.7864002507       20.5920057278
  O         5.0573196540       10.7072232799       20.5968323419
  O        -0.0043646656        0.0001399439        7.7002133969
  O        -1.6857728034        2.9198579825        7.6959758536
  O        -3.3736040800        5.8359095002        7.7002001469
  O        -5.0949055525        8.7379347965        7.7336401207
  O         3.3716521304       -0.0000243233        7.6977180382
  O         1.6834900383        2.9235683310        7.7001974800
  O         0.0020729095        5.8358958297        7.7002122398
  O        -1.6857882864        8.7596816086        7.6976997705
  O         6.7430381573       -0.0000271286        7.6977050798
  O         5.0573438746        2.9632241954        7.7336459393
  O         3.3721261640        5.8400707489        7.7102304550
  O         1.7233317192        8.7379211442        7.7336336450
  O        10.1190727667        0.0001299207        7.7002114304
  O         8.4312225112        2.9235533166        7.7001879350
  O         6.7426014360        5.8400496517        7.7102026671
  O         5.0573631118        8.7589631444        7.7102426214
  O         1.6854493382        0.9734818232       16.4220016715
  O         0.0030732730        3.8949282646       16.4177514612
  O        -1.6857803863        6.8126312033       16.4220158923
  O        -3.3710524026        9.7331775850       16.4257642629
  O         5.0573628454        0.9727067846       16.4257606408
  O         3.3894580250        3.9066264815       16.4085968554
  O         1.7063845357        6.8217792306       16.4086041170
  O        -0.0004886900        9.7331646688       16.4257889404
  O         8.4292504430        0.9734694632       16.4219976692
  O         6.7252718102        3.9066057315       16.4086321275
  O         5.0573700325        6.8130125312       16.4389153701
  O         3.3742671116        9.7106441605       16.4086254178
  O        11.8004794189        0.9697521528       16.4177459900
  O        10.1116383279        3.8949266769       16.4177490478
  O         8.4083255701        6.8217728092       16.4086045964
  O         6.7403994379        9.7106588599       16.4085952979
  O        -0.0000650898        1.9465978648       25.1483745192
  O        -1.6857932525        4.8663742073       25.1483543875
  O        -3.3717701945        7.7861198477       25.1486893622
  O        -5.0576139689       10.7060843399       25.1486876483
  O         3.3715164497        1.9468538390       25.1487049614
  O         1.6857074577        4.8663861111       25.1482456986
  O         0.0002003088        7.7861354350       25.1486865761
  O        -1.6857715156       10.7061620025       25.1482553570
  O         6.7431992625        1.9468523704       25.1486932063
  O         5.0573478170        4.8666241285       25.1492959450
  O         3.3717207413        7.7862043953       25.1492774945
  O         1.6860543899       10.7060820501       25.1486868953
  O        10.1147535350        1.9466138146       25.1483632591
  O         8.4289842954        4.8663926139       25.1482371242
  O         6.7429576003        7.7862025294       25.1492781770
  O         5.0573452602       10.7062467480       25.1482375485
  O        -0.0002425529       -0.0061884584       18.5854766484
  O        -1.6857889322        2.9198555251       18.5885377627
  O        -3.3770436376        5.8426212913       18.5854768899
  O        -5.0538284061        8.7616399179       18.5935225394
  O         3.3696315259        0.0011172228       18.5925370946
  O         1.6910305567        2.9231762327       18.5854713662
  O         0.0054901065        5.8426113795       18.5854678520
  O        -1.6857769443        8.7573723266       18.5925301632
  O         6.7450515433        0.0011112825       18.5925357935
  O         5.0573414890        2.9157899122       18.5935045248
  O         3.3673254598        5.8372765025       18.5973675900
  O         1.6822692382        8.7615970479       18.5935356306
  O        10.1149642223       -0.0061831469       18.5854646442
  O         8.4236716987        2.9231658543       18.5854601248
  O         6.7473811223        5.8372874293       18.5973720166
  O         5.0573365317        8.7644841716       18.5973795609
  O         1.6864721502        0.9728936306        1.1458324830
  O         0.0001433446        3.8932373144        1.1451498710
  O        -1.6857812643        6.8137996970        1.1458158901
  O        -3.3713125164        9.7330320436        1.1458293542
  O         5.0573431928        0.9729893187        1.1458330356
  O         3.3716380084        3.8940468556        1.1455466920
  O         1.6865952856        6.8126238428        1.1455200086
  O        -0.0002643541        9.7330307554        1.1458226173
  O         8.4282550726        0.9729000632        1.1458233041
  O         6.7430569894        3.8940571177        1.1455317327
  O         5.0573367982        6.8130074571        1.1462673147
  O         3.3723106940        9.7323664199        1.1455304999
  O        11.8004907397        0.9731237479        1.1451555296
  O        10.1145549548        3.8932351781        1.1451457640
  O         8.4280982236        6.8126345015        1.1455269823
  O         6.7423866070        9.7323459690        1.1455312082
  O         0.0018458989        1.9455264846        9.8697247869
  O        -1.6857645304        4.8685680569        9.8697204437
  O        -3.3714393883        7.7910219011        9.8665687163
  O        -5.0532303984       10.7039384716        9.8665863531
  O         3.3755771646        1.9441647515        9.8665908592
  O         1.6933415845        4.8708126819        9.8763117181
  O        -0.0001565452        7.7910481940        9.8665741299
  O        -1.6857760800       10.7061819361        9.8704024487
  O         6.7391111352        1.9441570280        9.8665686069
  O         5.0574206378        4.9654680991        9.9652419840
  O         3.4572872717        7.7368259134        9.9653072137
  O         1.6815976559       10.7039591471        9.8665642838
  O        10.1128661636        1.9454982018        9.8697161680
  O         8.4213827550        4.8708145269        9.8762949290
  O         6.6574366656        7.7367115319        9.9652344937
  O         5.0573579958       10.6974490819        9.8763427774
  O        -0.0000059125        0.0007528748       22.5818876943
  O        -1.6857737880        2.9198510015       22.5794922707
  O        -3.3709247376        5.8393420601       22.5818798741
  O        -5.0582739890        8.7590786170       22.5845483923
  O         3.3716598802       -0.0000493141       22.5825180664
  O         1.6851236874        2.9194911402       22.5818947622
  O        -0.0006332437        5.8393375299       22.5819006897
  O        -1.6857916761        8.7597168743       22.5825144697
  O         6.7430322677       -0.0000611969       22.5825219297
  O         5.0573392458        2.9209359290       22.5845216067
  O         3.3722663851        5.8401169148       22.5849780895
  O         1.6867000012        8.7590620093       22.5845193811
  O        10.1147241332        0.0007494759       22.5818850409
  O         8.4295782192        2.9194961598       22.5818739024
  O         6.7424223921        5.8401238292       22.5849793659
  O         5.0573631040        8.7587735852       22.5849899962
  O         1.6854052623        0.9735081500        5.1388157581
  O         0.0007151879        3.8935498118        5.1375833278
  O        -1.6857724995        6.8125799350        5.1388130298
  O        -3.3771178284        9.7296793577        5.1450900924
  O         5.0573476873        0.9796950262        5.1450799378
  O         3.3732481571        3.8923066311        5.1415041702
  O         1.6858897877        6.8148893025        5.1414999189
  O         0.0055490686        9.7296787974        5.1450730494
  O         8.4293034537        0.9734945787        5.1388024439
  O         6.7414531948        3.8922978327        5.1414973014
  O         5.0573527475        6.8130087871        5.1446775062
  O         3.3700040280        9.7318425619        5.1414941958
  O        11.8005008792        0.9724866811        5.1375650919
  O        10.1140140487        3.8935557615        5.1375896305
  O         8.4288313720        6.8148892860        5.1415012851
  O         6.7447114236        9.7318527203        5.1414915190
  O         0.0023664752        1.9452143375       13.8515060198
  O        -1.6857843042        4.8691643809       13.8515045318
  O        -3.3779057453        7.7904636974       13.8626339546
  O        -5.0569624144       10.6985689987       13.8626137534
  O         3.3783547776        1.9500337168       13.8625829377
  O         1.6984954966        4.8737965316       13.8394697964
  O         0.0063027387        7.7904671185       13.8626241904
  O        -1.6857957402       10.7061875180       13.8549880284
  O         6.7363507266        1.9500494477       13.8626012784
  O         5.0574497506        4.9623468157       13.7228290861
  O         3.4545767501        7.7384071365       13.7228079581
  O         1.6853578797       10.6986150438       13.8626154867
  O        10.1123624281        1.9452078025       13.8515110278
  O         8.4162276416        4.8737570204       13.8395058717
  O         6.6601318954        7.7383011265       13.7227707352
  O         5.0573472754       10.6914596050       13.8394747288
     335
 i =        8, E =    -12260.0344742759
 Zn        -0.0003840284        0.0014511864        5.6901236535
 Zn        -1.6857798830        2.9198607163        5.6879008053
 Zn        -3.3704943531        5.8386622173        5.6901140684
 Zn        -5.0599604882        8.7580849667        5.6987186703
 Zn         3.3714983142        0.0000380691        5.6891512933
 Zn         1.6843268032        2.9194761498        5.6901375911
 Zn        -0.0010633058        5.8386649687        5.6901200400
 Zn        -1.6857767121        8.7595079526        5.6891406544
 Zn         6.7432057198        0.0000495425        5.6891465830
 Zn         5.0573521034        2.9228833767        5.6987263088
 Zn         3.3693593729        5.8384578240        5.6813292076
 Zn         1.6884085631        8.7580763090        5.6987147626
 Zn        10.1150966312        0.0014485393        5.6901400005
 Zn         8.4303911357        2.9194742485        5.6901018388
 Zn         6.7453515706        5.8384484530        5.6812696840
 Zn         5.0573583189        8.7621273160        5.6813067350
 Zn         1.6839091526        0.9743935323       14.4328111452
 Zn        -0.0027168124        3.8915966569       14.4233546498
 Zn        -1.6857935237        6.8108580449       14.4328718121
 Zn        -3.3663294403        9.7359289166       14.4365083884
 Zn         5.0573449434        0.9672383913       14.4365088989
 Zn         3.3589417902        3.8860914066       14.4247646054
 Zn         1.6732675524        6.8056434473       14.4247640027
 Zn        -0.0052638918        9.7359309864       14.4365767478
 Zn         8.4307984188        0.9743878375       14.4328166227
 Zn         6.7558269834        3.8860361540       14.4248153377
 Zn         5.0573153729        6.8130468673       14.4870636770
 Zn         3.3716956808        9.7474147848       14.4247826957
 Zn        11.8004940945        0.9764137276       14.4233518245
 Zn        10.1174369094        3.8915843324       14.4233636565
 Zn         8.4414454598        6.8055957379       14.4247949982
 Zn         6.7429781799        9.7473331667       14.4247315087
 Zn        -0.0000841001        1.9466293130       23.1487805919
 Zn        -1.6857803823        4.8663400335       23.1487700204
 Zn        -3.3706928564        7.7856156855       23.1488800289
 Zn        -5.0575026695       10.7072675927       23.1488987413
 Zn         3.3705415984        1.9461620934       23.1488873130
 Zn         1.6838223545        4.8653050922       23.1490818472
 Zn        -0.0008671765        7.7856287490       23.1488684202
 Zn        -1.6857766715       10.7061621925       23.1482524636
 Zn         6.7441590392        1.9461594965       23.1488806897
 Zn         5.0573616235        4.8655887335       23.1518896484
 Zn         3.3708386032        7.7867201800       23.1518728367
 Zn         1.6859457819       10.7072682699       23.1488841505
 Zn        10.1147873052        1.9466314152       23.1487638222
 Zn         8.4308756530        4.8652979688       23.1490908383
 Zn         6.7438619258        7.7867254774       23.1519042609
 Zn         5.0573587720       10.7084262509       23.1490774111
 In         0.0000869867        0.0001394946        0.0509819741
 In        -1.6857929347        2.9198777782        0.0513583031
 In        -3.3713963518        5.8397043515        0.0509674819
 In        -5.0568762978        8.7598795798        0.0514014936
 In         3.3717748421       -0.0001194272        0.0504734264
 In         1.6856686403        2.9197097991        0.0509809121
 In        -0.0001825412        5.8397186633        0.0509389251
 In        -1.6857824118        8.7598266634        0.0505065171
 In         6.7429473679       -0.0001027760        0.0504872260
 In         5.0573628579        2.9192964126        0.0514514446
 In         3.3711330810        5.8394885187        0.0498992237
 In         1.6852804752        8.7598684930        0.0514369072
 In        10.1146159377        0.0001729703        0.0509652757
 In         8.4290192356        2.9197162216        0.0509721531
 In         6.7435462799        5.8394918888        0.0499009785
 In         5.0573443286        8.7600604412        0.0499004324
 In         1.6855122826        0.9734708245        8.7615209010
 In        -0.0064394673        3.8894464509        8.7678716738
 In        -1.6857872694        6.8126981161        8.7615092485
 In        -3.3692941001        9.7342034588        8.7686489997
 In         5.0573360342        0.9706760327        8.7686881967
 In         3.3573476628        3.8897085341        8.7785511697
 In         1.6756663333        6.8024416729        8.7785830482
 In        -0.0022939062        9.7342117583        8.7685949875
 In         8.4292081357        0.9734529713        8.7614799902
 In         6.7573958045        3.8897049209        8.7785177961
 In         5.0573547693        6.8130289638        8.7092768095
 In         3.3756676355        9.7469498466        8.7785744578
 In        11.8004757271        0.9807384482        8.7679032628
 In        10.1211602762        3.8894336935        8.7678789555
 In         8.4390710769        6.8024154152        8.7785192098
 In         6.7390227414        9.7469248295        8.7786022213
 In         0.0005173469        1.9462843043       17.5073772306
 In        -1.6857786523        4.8670360879       17.5073877148
 In        -3.3710059105        7.7879708708       17.5038196366
 In        -5.0556335491       10.7058245386       17.5038192237
 In         3.3727227492        1.9452630554       17.5037820112
 In         1.6866179392        4.8669126808       17.4997736671
 In        -0.0005720581        7.7879674965       17.5038296586
 In        -1.6857732548       10.7061700300       17.5171085683
 In         6.7419808834        1.9452489022       17.5038237987
 In         5.0573744362        4.8628740905       17.5378038702
 In         3.3684928354        7.7880812688       17.5377801692
 In         1.6840639365       10.7058214235       17.5038616476
 In        10.1141760458        1.9462708121       17.5073496763
 In         8.4280854750        4.8669375159       17.4998129099
 In         6.7462282242        7.7880887130       17.5378130667
 In         5.0573477927       10.7051933430       17.4997777647
 Ga         0.0001803937       -0.0005762186       20.5780960632
 Ga        -1.6857789933        2.9198596348       20.5780550021
 Ga        -3.3719827035        5.8401708220       20.5780867910
 Ga        -5.0563808152        8.7601574750       20.5835661430
 Ga         3.3713617256        0.0001371538       20.5792081316
 Ga         1.6863827284        2.9200071441       20.5781127523
 Ga         0.0004199218        5.8401652857       20.5781044248
 Ga        -1.6857765241        8.7593407622       20.5792007022
 Ga         6.7433414809        0.0001363167       20.5792161268
 Ga         5.0573503821        2.9187372374       20.5835616728
 Ga         3.3704257761        5.8390652336       20.5869381479
 Ga         1.6848120872        8.7601524049       20.5835519802
 Ga        10.1145172847       -0.0005839838       20.5781033474
 Ga         8.4283272759        2.9199984334       20.5780928292
 Ga         6.7442726692        5.8390594821       20.5869102151
 Ga         5.0573424637        8.7609084673       20.5869113308
 Ga         1.6858071294        0.9732627960        3.1244954987
 Ga         0.0001796758        3.8932491699        3.1240284500
 Ga        -1.6857812863        6.8130451932        3.1244707161
 Ga        -3.3722480162        9.7324961811        3.1247578561
 Ga         5.0573438615        0.9740574616        3.1247617423
 Ga         3.3719164154        3.8923503703        3.1237840701
 Ga         1.6852702736        6.8137194068        3.1237630234
 Ga         0.0006599933        9.7324940324        3.1247522764
 Ga         8.4288998461        0.9732695176        3.1244673879
 Ga         6.7427894771        3.8923554683        3.1237736029
 Ga         5.0573556176        6.8130223872        3.1222574780
 Ga         3.3707119494        9.7329774277        3.1237664949
 Ga        11.8004982555        0.9730811281        3.1240351379
 Ga        10.1145249915        3.8932567660        3.1240156741
 Ga         8.4294329178        6.8137268012        3.1237671770
 Ga         6.7440044795        9.7329714873        3.1237755542
 Ga        -0.0045507517        1.9492123445       11.8487362050
 Ga        -1.6857527687        4.8611319307       11.8487307613
 Ga        -3.3233242030        7.7979993027       11.8512837541
 Ga        -5.0231000815       10.7421655830       11.8512891921
 Ga         3.3576402037        1.8990414767       11.8512972760
 Ga         1.6763212573        4.8610358807       11.8474077678
 Ga        -0.0483172232        7.7980359631       11.8512962770
 Ga        -1.6858261741       10.7062204239       11.8501419378
 Ga         6.7570565832        1.8990664610       11.8512790792
 Ga         5.0573145213        4.6358796416       11.8376619007
 Ga         3.1720596206        7.9014983493       11.8376716816
 Ga         1.6514527250       10.7422004141       11.8512931599
 Ga        10.1192980998        1.9491807666       11.8487389836
 Ga         8.4384418958        4.8609594473       11.8473956550
 Ga         6.9427796372        7.9016252138       11.8376337754
 Ga         5.0572961101       10.7170747688       11.8474172028
  O         0.0002983192       -0.0011196969        3.1547535468
  O        -1.6857829959        2.9198679920        3.1541293443
  O        -3.3723794186        5.8405321003        3.1547939560
  O        -5.0574674885        8.7595199137        3.1544361275
  O         3.3732283467       -0.0009643231        3.1574027456
  O         1.6868875372        2.9201569223        3.1547691070
  O         0.0008197399        5.8405320619        3.1548163671
  O        -1.6857986910        8.7615135149        3.1574112306
  O         6.7414688564       -0.0009558698        3.1574113909
  O         5.0573586736        2.9200002157        3.1544219999
  O         3.3722319343        5.8401129759        3.1582713500
  O         1.6859005173        8.7595291892        3.1544442448
  O        10.1144241511       -0.0011113658        3.1548111654
  O         8.4278172553        2.9201736614        3.1548297462
  O         6.7424790169        5.8401123200        3.1582797329
  O         5.0573576419        8.7588258986        3.1582854046
  O         1.6798250768        0.9767951728       11.8764219475
  O        -0.0005393529        3.8928115382       11.8747457043
  O        -1.6858117451        6.8060901087       11.8764238630
  O        -3.3663459837        9.7359057869       11.8744108523
  O         5.0573634605        0.9672875550       11.8744111153
  O         3.3381378921        3.8274060749       11.8732476327
  O         1.6121257240        6.8170678020       11.8732117894
  O        -0.0052848050        9.7359415965       11.8744368695
  O         8.4348526302        0.9768323730       11.8764242017
  O         6.7765768623        3.8274666266       11.8732310237
  O         3.3312084974        9.7946521402       11.8731878217
  O        11.8005268091        0.9739464081       11.8747322339
  O        10.1153039672        3.8927845826       11.8747356862
  O         8.5025762314        6.8169619546       11.8732701045
  O         6.7834304208        9.7947400866       11.8732251830
  O         0.0011602099        1.9459154285       20.5902097430
  O        -1.6857726193        4.8677552809       20.5902391040
  O        -3.3722599676        7.7858522236       20.5960683576
  O        -5.0580861952       10.7058111389       20.5960554253
  O         3.3715179054        1.9474077826       20.5960178696
  O         1.6851478419        4.8660733085       20.5960104646
  O         0.0006865571        7.7858326071       20.5960582137
  O        -1.6857829544       10.7061646377       20.5949127864
  O         6.7431798155        1.9474056658       20.5960603447
  O         5.0573525662        4.8665003020       20.5920923756
  O         3.3716271050        7.7862547319       20.5921355345
  O         1.6865143677       10.7058076167       20.5960348817
  O        10.1135565609        1.9459103756       20.5902311278
  O         8.4295605491        4.8660628812       20.5960517848
  O         6.7430836679        7.7862744103       20.5921388650
  O         5.0573477461       10.7069047379       20.5960413105
  O        -0.0045815080       -0.0003654504        7.6999077912
  O        -1.6857857567        2.9198745680        7.6962091695
  O        -3.3741470136        5.8359327962        7.6998800659
  O        -5.0949067378        8.7379537144        7.7331521462
  O         3.3720394529       -0.0002741860        7.6968935755
  O         1.6838069338        2.9240159022        7.6998931256
  O         0.0026148048        5.8359588803        7.6999068476
  O        -1.6857843608        8.7601589296        7.6968709734
  O         6.7426406333       -0.0002572380        7.6968736906
  O         5.0573498700        2.9632295997        7.7331537684
  O         3.3728120109        5.8404619407        7.7140686017
  O         1.7233224184        8.7379259420        7.7331607513
  O        10.1192953022       -0.0003744797        7.6999050394
  O         8.4309125419        2.9240076754        7.6998799707
  O         6.7419053847        5.8404480000        7.7140084172
  O         5.0573577669        8.7581699892        7.7140811699
  O         1.6854499047        0.9734733014       16.4229524622
  O         0.0033163393        3.8950741669       16.4173275775
  O        -1.6857895368        6.8126221862       16.4229707200
  O        -3.3711237231        9.7331431599       16.4266897653
  O         5.0573465878        0.9727739041       16.4266820898
  O         3.3889385445        3.9065049494       16.4071321844
  O         1.7060115661        6.8213800552       16.4071383096
  O        -0.0004292714        9.7331292730       16.4267216741
  O         8.4292604617        0.9734748558       16.4229468706
  O         6.7258074493        3.9064832799       16.4071618303
  O         5.0573601098        6.8130150926       16.4310331894
  O         3.3744279187        9.7111766616       16.4071493338
  O        11.8004870359        0.9694462170       16.4173157205
  O        10.1113825335        3.8950749742       16.4173247313
  O         8.4087087290        6.8213803050       16.4071399701
  O         6.7402491961        9.7111790884       16.4071217186
  O        -0.0001149240        1.9466113495       25.1485147857
  O        -1.6857952814        4.8663314663       25.1484955570
  O        -3.3717688039        7.7861306064       25.1487648711
  O        -5.0575981779       10.7060844248       25.1487637112
  O         3.3715303478        1.9468458762       25.1487651976
  O         1.6856904484        4.8663656793       25.1484022516
  O         0.0001940474        7.7861555032       25.1487487223
  O        -1.6857687734       10.7061688981       25.1483945846
  O         6.7431632795        1.9468287822       25.1487560949
  O         5.0573326774        4.8666149864       25.1494095249
  O         3.3717131794        7.7862148486       25.1493903181
  O         1.6860302991       10.7060647381       25.1487525413
  O        10.1148242085        1.9466252883       25.1484998331
  O         8.4290206845        4.8663960956       25.1484096761
  O         6.7429689350        7.7862018117       25.1494030909
  O         5.0573415159       10.7062968708       25.1484155155
  O        -0.0004026443       -0.0064365668       18.5854400404
  O        -1.6857921962        2.9198587654       18.5883646093
  O        -3.3773333520        5.8426052729       18.5854438988
  O        -5.0550900999        8.7609074740       18.5928624952
  O         3.3696621792        0.0011109751       18.5929458385
  O         1.6911757784        2.9234260007       18.5854582295
  O         0.0057898116        5.8426040221       18.5854498569
  O        -1.6857937256        8.7573988902       18.5929452292
  O         6.7450414461        0.0010882334       18.5929598450
  O         5.0573304352        2.9172619925       18.5928808247
  O         3.3686356880        5.8380278679       18.5956492313
  O         1.6835437370        8.7608708791       18.5929044592
  O        10.1151138452       -0.0064377819       18.5854435025
  O         8.4235484544        2.9234287714       18.5854395976
  O         6.7460602504        5.8380361120       18.5956427219
  O         5.0573434864        8.7629745114       18.5956417858
  O         1.6863669736        0.9729491294        1.1458905228
  O         0.0002063164        3.8932631368        1.1452117835
  O        -1.6858062004        6.8136884412        1.1458623078
  O        -3.3714279518        9.7329602825        1.1458014329
  O         5.0573429672        0.9731176183        1.1458050711
  O         3.3716736176        3.8940159495        1.1455418085
  O         1.6865900456        6.8126666488        1.1455168665
  O        -0.0001430806        9.7329788535        1.1457991000
  O         8.4283379289        0.9729378734        1.1458722941
  O         6.7430125868        3.8940403136        1.1455305217
  O         5.0573384746        6.8129958104        1.1461160372
  O         3.3722679341        9.7323568294        1.1455159964
  O        11.8005057929        0.9730368241        1.1452123287
  O        10.1145011337        3.8932881997        1.1452088999
  O         8.4281225754        6.8126706622        1.1455236717
  O         6.7424286760        9.7323585210        1.1455305766
  O         0.0018857138        1.9454912650        9.8703475195
  O        -1.6857760629        4.8686170827        9.8703495561
  O        -3.3697400077        7.7918113763        9.8660641421
  O        -5.0517459181       10.7050213294        9.8660839950
  O         3.3753888362        1.9423633196        9.8660988333
  O         1.6940634050        4.8712246185        9.8768981289
  O        -0.0018225267        7.7918097180        9.8660753388
  O        -1.6857930045       10.7061683692        9.8706271699
  O         6.7393059279        1.9423218211        9.8660745289
  O         5.0574254392        4.9665271911        9.9712536994
  O         3.4581541387        7.7363387152        9.9713403915
  O         1.6800991784       10.7050197383        9.8660738150
  O        10.1128127629        1.9454998162        9.8703528175
  O         8.4206910348        4.8711918931        9.8768595120
  O         6.6565215508        7.7361805293        9.9712585683
  O         5.0573618726       10.6966046517        9.8769284981
  O        -0.0000748274        0.0007858369       22.5818019649
  O        -1.6857865380        2.9198553370       22.5790748666
  O        -3.3709246012        5.8392678146       22.5817878720
  O        -5.0582809135        8.7590631318       22.5840655804
  O         3.3715869312       -0.0000113267       22.5824450738
  O         1.6850557575        2.9195287578       22.5818184723
  O        -0.0006472972        5.8392676790       22.5818202766
  O        -1.6857866624        8.7596271166       22.5824346311
  O         6.7431131907       -0.0000152206       22.5824482154
  O         5.0573542428        2.9209400723       22.5840668691
  O         3.3721969413        5.8400795477       22.5847310361
  O         1.6867010972        8.7590616694       22.5840561127
  O        10.1147795846        0.0007912438       22.5818068403
  O         8.4296403847        2.9195328386       22.5817921090
  O         6.7425061190        5.8400842155       22.5847106669
  O         5.0573629226        8.7588575027       22.5847234653
  O         1.6853510939        0.9735355065        5.1386484230
  O         0.0005403690        3.8934644852        5.1372775126
  O        -1.6857761839        6.8125130241        5.1386271559
  O        -3.3771457193        9.7296625062        5.1447833287
  O         5.0573575711        0.9797292677        5.1447722754
  O         3.3733387564        3.8931539998        5.1426126574
  O         1.6866633570        6.8145456160        5.1426037252
  O         0.0055779938        9.7296580129        5.1447708717
  O         8.4293594953        0.9735349751        5.1386162819
  O         6.7413711430        3.8931386818        5.1426010070
  O         5.0573492415        6.8130173436        5.1459324247
  O         3.3706830685        9.7313492816        5.1425982451
  O        11.8004828878        0.9726770261        5.1372641425
  O        10.1141721045        3.8934614779        5.1372778157
  O         8.4280535663        6.8145409723        5.1426052126
  O         6.7440248371        9.7313459248        5.1426021026
  O         0.0022457327        1.9452821773       13.8517083110
  O        -1.6857818014        4.8690318987       13.8516999942
  O        -3.3754374585        7.7916713537       13.8633316379
  O        -5.0546899439       10.7001036249       13.8633259433
  O         3.3781746704        1.9473190722       13.8632934021
  O         1.6995612828        4.8744023229       13.8381922328
  O         0.0038448058        7.7916935455       13.8633312385
  O        -1.6857881452       10.7061849267       13.8555822841
  O         6.7365299796        1.9473195742       13.8633135992
  O         5.0574655138        4.9608046045       13.7196166957
  O         3.4532042623        7.7392011137       13.7195753710
  O         1.6830523594       10.7001372313       13.8633232057
  O        10.1124688532        1.9452716152       13.8517106172
  O         8.4151804425        4.8743734972       13.8382136114
  O         6.6614807670        7.7390489888       13.7195567908
  O         5.0573536712       10.6902333177       13.8381924987
     335
 i =        9, E =    -12260.0345854398
 Zn        -0.0006192320        0.0015124824        5.6894128252
 Zn        -1.6857855600        2.9198634393        5.6879256174
 Zn        -3.3705648436        5.8384330870        5.6893853361
 Zn        -5.0596113475        8.7582902912        5.6975736115
 Zn         3.3714961050        0.0000428762        5.6885146061
 Zn         1.6841585298        2.9196427282        5.6894100613
 Zn        -0.0010008818        5.8384375553        5.6894016279
 Zn        -1.6857872576        8.7595057430        5.6885008055
 Zn         6.7432077134        0.0000463978        5.6885013365
 Zn         5.0573518765        2.9224724300        5.6975742034
 Zn         3.3693362262        5.8384405339        5.6862433526
 Zn         1.6880478339        8.7582825475        5.6975793645
 Zn        10.1153209516        0.0015138670        5.6894074614
 Zn         8.4305452018        2.9196420048        5.6893895114
 Zn         6.7453662736        5.8384425377        5.6861995297
 Zn         5.0573517586        8.7621707800        5.6862382261
 Zn         1.6835493639        0.9746004982       14.4356929731
 Zn        -0.0024179059        3.8917501194       14.4240153388
 Zn        -1.6857842399        6.8104275960       14.4357204908
 Zn        -3.3660992904        9.7360475297       14.4377032812
 Zn         5.0573492556        0.9669752158       14.4377113202
 Zn         3.3592992921        3.8851439478       14.4232841376
 Zn         1.6726546709        6.8064191685       14.4232580843
 Zn        -0.0054984994        9.7360545730       14.4377407424
 Zn         8.4311482835        0.9745970266       14.4356924100
 Zn         6.7554442949        3.8851317291       14.4232838962
 Zn         5.0573547108        6.8130203475       14.4853245277
 Zn         3.3707101151        9.7475581266       14.4232518455
 Zn        11.8004926419        0.9760846640       14.4240064381
 Zn        10.1171545084        3.8917372406       14.4240101026
 Zn         8.4420500766        6.8063846438       14.4232678007
 Zn         6.7439678415        9.7475088112       14.4232518911
 Zn        -0.0000390681        1.9465995690       23.1487294075
 Zn        -1.6857832422        4.8663937366       23.1487250607
 Zn        -3.3710206894        7.7857599886       23.1486932613
 Zn        -5.0575495804       10.7069089328       23.1487005016
 Zn         3.3708296540        1.9463781626       23.1486947169
 Zn         1.6842356293        4.8655465461       23.1490585055
 Zn        -0.0005402353        7.7857612856       23.1486888549
 Zn        -1.6857814417       10.7061668777       23.1481268374
 Zn         6.7438768310        1.9463761355       23.1486931104
 Zn         5.0573556735        4.8657497798       23.1513631427
 Zn         3.3709723614        7.7866461780       23.1513553371
 Zn         1.6859800660       10.7069069576       23.1486896279
 Zn        10.1147402437        1.9465984644       23.1487204688
 Zn         8.4304667561        4.8655444991       23.1490593631
 Zn         6.7437250556        7.7866459073       23.1513678526
 Zn         5.0573510332       10.7079532565       23.1490596226
 In         0.0000929796        0.0000060245        0.0508126676
 In        -1.6857874704        2.9198718826        0.0512692728
 In        -3.3715163498        5.8397919587        0.0508103108
 In        -5.0571403866        8.7597191419        0.0512266674
 In         3.3716934116       -0.0000769784        0.0502593156
 In         1.6858102482        2.9197829418        0.0508105468
 In        -0.0000563532        5.8397959646        0.0507998989
 In        -1.6857818773        8.7597409522        0.0502730528
 In         6.7430096882       -0.0000682946        0.0502684105
 In         5.0573552283        2.9196071097        0.0512366109
 In         3.3712519026        5.8395544690        0.0501545181
 In         1.6855579762        8.7597118747        0.0512371792
 In        10.1146085129        0.0000150485        0.0508140969
 In         8.4288875764        2.9197833351        0.0508099644
 In         6.7434384888        5.8395511919        0.0501572196
 In         5.0573533617        8.7599369020        0.0501573328
 In         1.6854050577        0.9735289953        8.7599111323
 In        -0.0060867946        3.8896458736        8.7687984572
 In        -1.6857850984        6.8125867997        8.7599058522
 In        -3.3689011269        9.7344272033        8.7679074080
 In         5.0573482623        0.9702274840        8.7679152623
 In         3.3572602500        3.8888197655        8.7792341981
 In         1.6748368007        6.8028124593        8.7792675639
 In        -0.0026833268        9.7344417151        8.7678872933
 In         8.4293014865        0.9735169199        8.7599017430
 In         6.7574706080        3.8888307754        8.7792262628
 In         5.0573754690        6.8130098790        8.7092638879
 In         3.3749313916        9.7474801854        8.7792673543
 In        11.8004819748        0.9803211705        8.7688066329
 In        10.1208038767        3.8896355081        8.7688108061
 In         8.4398613938        6.8027805523        8.7792365432
 In         6.7397509045        9.7474566264        8.7792598662
 In         0.0004454127        1.9463225158       17.5075510029
 In        -1.6857787131        4.8669496090       17.5075716263
 In        -3.3711265829        7.7879599326       17.5057537542
 In        -5.0557025728       10.7057264535       17.5057336335
 In         3.3727777436        1.9453684041       17.5057232779
 In         1.6865087730        4.8668487513       17.5015001983
 In        -0.0004478786        7.7879578009       17.5057599670
 In        -1.6857852080       10.7061673140       17.5177407124
 In         6.7419277311        1.9453621872       17.5057510406
 In         5.0573615865        4.8629258407       17.5320063058
 In         3.3685313398        7.7880612273       17.5319997556
 In         1.6841307100       10.7057263250       17.5057652045
 In        10.1142629890        1.9463161434       17.5075537933
 In         8.4281998491        4.8668646919       17.5015334666
 In         6.7461882279        7.7880603611       17.5320075767
 In         5.0573529693       10.7053238627       17.5015022434
 Ga         0.0001456629       -0.0005661853       20.5785103298
 Ga        -1.6857856892        2.9198623465       20.5782692906
 Ga        -3.3719855067        5.8401390908       20.5785068363
 Ga        -5.0567958854        8.7599125884       20.5827243671
 Ga         3.3714387564        0.0000790851       20.5796961479
 Ga         1.6863540373        2.9200222167       20.5785148082
 Ga         0.0004189149        5.8401408146       20.5785164740
 Ga        -1.6857791566        8.7594324593       20.5796953043
 Ga         6.7432710079        0.0000870360       20.5797014155
 Ga         5.0573557617        2.9192172316       20.5827296387
 Ga         3.3708798272        5.8393305146       20.5858062118
 Ga         1.6852278139        8.7599132563       20.5827232083
 Ga        10.1145472228       -0.0005700123       20.5785140696
 Ga         8.4283559425        2.9200164912       20.5785116663
 Ga         6.7438209759        5.8393247736       20.5857892917
 Ga         5.0573445168        8.7603842586       20.5857862967
 Ga         1.6858814543        0.9732245475        3.1244519909
 Ga         0.0000969382        3.8932109853        3.1240628428
 Ga        -1.6857836290        6.8131317934        3.1244383799
 Ga        -3.3721744987        9.7325296328        3.1246447652
 Ga         5.0573551668        0.9739816286        3.1246488124
 Ga         3.3719027292        3.8927701794        3.1239474400
 Ga         1.6856228722        6.8135027495        3.1239391282
 Ga         0.0006007129        9.7325293796        3.1246451025
 Ga         8.4288238450        0.9732246338        3.1244354573
 Ga         6.7428055533        3.8927717106        3.1239416079
 Ga         5.0573522847        6.8130228470        3.1230914844
 Ga         3.3710722192        9.7327827616        3.1239352285
 Ga        11.8004845612        0.9731687262        3.1240643224
 Ga        10.1146002643        3.8932105330        3.1240544594
 Ga         8.4290820822        6.8134993079        3.1239390942
 Ga         6.7436316611        9.7327767210        3.1239436369
 Ga        -0.0049185126        1.9494139295       11.8488586615
 Ga        -1.6857843092        4.8607775952       11.8488561096
 Ga        -3.3223629740        7.7953231022       11.8506794660
 Ga        -5.0248381813       10.7443524092       11.8506931466
 Ga         3.3548097169        1.8993302659       11.8507055899
 Ga         1.6769450141        4.8613775375       11.8470936311
 Ga        -0.0492088674        7.7953839675       11.8506896833
 Ga        -1.6857836457       10.7061698760       11.8504530914
 Ga         6.7599041263        1.8994256209       11.8506971926
 Ga         5.0571901040        4.6456979453       11.8384420335
 Ga         3.1807385205        7.8964515799       11.8384450031
 Ga         1.6533462600       10.7442950038       11.8506885046
 Ga        10.1196040697        1.9494073818       11.8488599164
 Ga         8.4377379075        4.8613530865       11.8470799554
 Ga         6.9341483158        7.8968318979       11.8384439329
 Ga         5.0573071417       10.7163670368       11.8470963987
  O         0.0002824428       -0.0013696514        3.1550700118
  O        -1.6857868959        2.9198639684        3.1537941285
  O        -3.3726055602        5.8406552168        3.1551096663
  O        -5.0577933954        8.7593356053        3.1549404208
  O         3.3730620585       -0.0008638549        3.1569974379
  O         1.6871051999        2.9202953575        3.1550750243
  O         0.0010429759        5.8406586536        3.1551164134
  O        -1.6857883848        8.7613152593        3.1570192060
  O         6.7416481529       -0.0008637483        3.1570221397
  O         5.0573553910        2.9203740600        3.1549310370
  O         3.3722426303        5.8401198559        3.1578798779
  O         1.6862265815        8.7593423191        3.1549505781
  O        10.1144218037       -0.0013688638        3.1551159710
  O         8.4275992189        2.9202965272        3.1551337912
  O         6.7424618129        5.8401195993        3.1578979201
  O         5.0573504553        8.7588155492        3.1578899285
  O         1.6792833292        0.9770484529       11.8756049315
  O        -0.0004854281        3.8928682355       11.8747665444
  O        -1.6857693630        6.8055745275       11.8755968910
  O        -3.3668256126        9.7355955327       11.8738848194
  O         5.0573773846        0.9678370314       11.8738902508
  O         3.3407835408        3.8303973907       11.8738778962
  O         1.6162278993        6.8178095288       11.8738630747
  O        -0.0047290399        9.7356437941       11.8739121341
  O         8.4353825987        0.9770219482       11.8756005169
  O         6.7737967137        3.8305189903       11.8738764698
  O         3.3326413343        9.7907022821       11.8738488270
  O        11.8004887223        0.9738602311       11.8747596334
  O        10.1151929726        3.8928642402       11.8747526766
  O         8.4984509859        6.8177911559       11.8738754867
  O         6.7820849803        9.7909409974       11.8738707348
  O         0.0011253937        1.9459321566       20.5900409648
  O        -1.6857767381        4.8677307113       20.5900695303
  O        -3.3723566875        7.7858894474       20.5954345518
  O        -5.0581063282       10.7056954643       20.5954397614
  O         3.3716017621        1.9474705270       20.5954161105
  O         1.6856271819        4.8663512100       20.5950934034
  O         0.0007894331        7.7858806312       20.5954372611
  O        -1.6857768103       10.7061650720       20.5952166347
  O         6.7431033942        1.9474687384       20.5954385840
  O         5.0573491829        4.8667993716       20.5924090221
  O         3.3718825592        7.7861143680       20.5924186959
  O         1.6865333044       10.7056936626       20.5954235363
  O        10.1135844776        1.9459246302       20.5900756662
  O         8.4290780230        4.8663456095       20.5951024364
  O         6.7428221026        7.7861231974       20.5924400427
  O         5.0573463798       10.7063452834       20.5950960774
  O        -0.0046837407       -0.0009874006        7.6998814196
  O        -1.6857888276        2.9198707305        7.6968686881
  O        -3.3747299664        5.8361508281        7.6998478858
  O        -5.0943449109        8.7382522519        7.7312312153
  O         3.3721880403       -0.0003533357        7.6960232399
  O         1.6843000771        2.9244224958        7.6998750241
  O         0.0031901684        5.8361757405        7.6998721962
  O        -1.6857905821        8.7603326185        7.6959971840
  O         6.7425000449       -0.0003443106        7.6959977957
  O         5.0573559214        2.9625911685        7.7312235670
  O         3.3719911635        5.8400046588        7.7166927503
  O         1.7227785282        8.7382421129        7.7312429670
  O        10.1193872155       -0.0009766597        7.6998684384
  O         8.4304284781        2.9244020136        7.6998566711
  O         6.7427019735        5.8399940073        7.7166280304
  O         5.0573353857        8.7590993939        7.7167066644
  O         1.6853072763        0.9735640194       16.4247567843
  O         0.0035054035        3.8951799040       16.4177995749
  O        -1.6857859329        6.8124573128       16.4247635347
  O        -3.3713464601        9.7330113050       16.4278270059
  O         5.0573478547        0.9730298959       16.4278261453
  O         3.3874168767        3.9051480461       16.4059579540
  O         1.7040823063        6.8207424640       16.4059476373
  O        -0.0002204405        9.7330053807       16.4278373199
  O         8.4294032491        0.9735653765       16.4247511383
  O         6.7273161121        3.9051383736       16.4059613592
  O         5.0573446865        6.8130214134       16.4264534669
  O         3.3740205368        9.7131716352       16.4059405794
  O        11.8004883726        0.9692267996       16.4177896752
  O        10.1112001512        3.8951761500       16.4177951418
  O         8.4106349775        6.8207361636       16.4059503211
  O         6.7406750488        9.7131653998       16.4059484364
  O        -0.0000911046        1.9466186730       25.1486161661
  O        -1.6857894799        4.8663415673       25.1486075676
  O        -3.3717675006        7.7861992743       25.1487180017
  O        -5.0575405986       10.7060462731       25.1487219176
  O         3.3715812701        1.9468062585       25.1487196089
  O         1.6857790945        4.8664270261       25.1485203047
  O         0.0001968320        7.7862090834       25.1487116618
  O        -1.6857793427       10.7061676953       25.1484618773
  O         6.7431122529        1.9467976491       25.1487138252
  O         5.0573409739        4.8665805761       25.1493065859
  O         3.3716876097        7.7862349073       25.1492980766
  O         1.6859701407       10.7060370874       25.1487102506
  O        10.1148032201        1.9466167885       25.1486061629
  O         8.4289321136        4.8664434427       25.1485199836
  O         6.7430090033        7.7862261814       25.1493033080
  O         5.0573452542       10.7061863336       25.1485282901
  O        -0.0006709541       -0.0063223175       18.5863385719
  O        -1.6857771689        2.9198559814       18.5886231806
  O        -3.3773718234        5.8423091578       18.5863484005
  O        -5.0568681706        8.7598840364       18.5924586250
  O         3.3697912687        0.0010327305       18.5939140514
  O         1.6909348026        2.9236029101       18.5863470629
  O         0.0058310156        5.8423005838       18.5863511878
  O        -1.6857902385        8.7575527550       18.5939212773
  O         6.7449031350        0.0010141934       18.5939235626
  O         5.0573347226        2.9193088253       18.5924748277
  O         3.3702703281        5.8389749121       18.5932488283
  O         1.6853096867        8.7598610379       18.5924846782
  O        10.1153897926       -0.0063284045       18.5863429957
  O         8.4237898976        2.9236059807       18.5863471509
  O         6.7444191558        5.8389868795       18.5932439895
  O         5.0573520803        8.7610862032       18.5932420619
  O         1.6861760131        0.9730665764        1.1461365832
  O         0.0003363534        3.8933361672        1.1456051648
  O        -1.6857933241        6.8134701938        1.1461244943
  O        -3.3716428848        9.7328363554        1.1458922071
  O         5.0573413102        0.9733745993        1.1458939740
  O         3.3716966991        3.8938821899        1.1456132585
  O         1.6864857882        6.8127570383        1.1456065370
  O         0.0000741880        9.7328426444        1.1458920783
  O         8.4285247629        0.9730526926        1.1461249076
  O         6.7429917436        3.8938944898        1.1456106344
  O         5.0573472074        6.8130050734        1.1458281890
  O         3.3721375111        9.7323983327        1.1455996583
  O        11.8005004670        0.9728999950        1.1456037953
  O        10.1143798324        3.8933493307        1.1456016592
  O         8.4282233534        6.8127606163        1.1456083257
  O         6.7425625750        9.7324083971        1.1456106325
  O         0.0019223408        1.9454641704        9.8701956254
  O        -1.6857728288        4.8686621790        9.8701994488
  O        -3.3689865678        7.7913779509        9.8652599656
  O        -5.0517059603       10.7058893282        9.8652797659
  O         3.3746659563        1.9418864559        9.8652931462
  O         1.6946595655        4.8715746403        9.8771450974
  O        -0.0025850597        7.7913712253        9.8652717185
  O        -1.6858149421       10.7061919820        9.8696707112
  O         6.7400377600        1.9418580066        9.8652792477
  O         5.0573667248        4.9717983956        9.9743147736
  O         3.4628158069        7.7336376770        9.9743220247
  O         1.6800980621       10.7058988527        9.8652733272
  O        10.1127837895        1.9454569354        9.8702014796
  O         8.4201105303        4.8715282460        9.8771105973
  O         6.6519212043        7.7336187832        9.9743231114
  O         5.0573448130       10.6959113152        9.8771503963
  O        -0.0002139997        0.0007090335       22.5818090497
  O        -1.6857873971        2.9198604473       22.5789041916
  O        -3.3710554522        5.8391911422       22.5818004114
  O        -5.0582428767        8.7590758047       22.5835069817
  O         3.3714161050        0.0000889843       22.5824604490
  O         1.6850604763        2.9196888199       22.5818138663
  O        -0.0005139569        5.8391888411       22.5818179700
  O        -1.6857825423        8.7594211021       22.5824552650
  O         6.7432860124        0.0000892002       22.5824597640
  O         5.0573559074        2.9208927595       22.5835151416
  O         3.3720231399        5.8399861694       22.5842091585
  O         1.6866684817        8.7590777769       22.5835057957
  O        10.1149099619        0.0007095293       22.5818129255
  O         8.4296395176        2.9196899717       22.5818074835
  O         6.7426814783        5.8399891578       22.5841949886
  O         5.0573536524        8.7590643137       22.5842007225
  O         1.6851686164        0.9736386677        5.1383447890
  O         0.0002692365        3.8933120789        5.1369345102
  O        -1.6857803061        6.8123065600        5.1383282350
  O        -3.3769673853        9.7297683090        5.1438808462
  O         5.0573514200        0.9795201084        5.1438767411
  O         3.3732862209        3.8939248021        5.1434333933
  O         1.6873126141        6.8141173905        5.1434319886
  O         0.0053972900        9.7297603048        5.1438782980
  O         8.4295359592        0.9736421766        5.1383239639
  O         6.7414186041        3.8939213655        5.1434263790
  O         5.0573465143        6.8130239449        5.1479522784
  O         3.3713756295        9.7310068988        5.1434275267
  O        11.8004857668        0.9729757033        5.1369275294
  O        10.1144322397        3.8933052431        5.1369285489
  O         8.4273961114        6.8141190284        5.1434279415
  O         6.7433242075        9.7310050777        5.1434315224
  O         0.0020482825        1.9453930910       13.8518286100
  O        -1.6857677163        4.8687988011       13.8518202020
  O        -3.3724825607        7.7922915248       13.8632098302
  O        -5.0526520442       10.7023788359       13.8632131518
  O         3.3772326148        1.9444446207       13.8632067500
  O         1.6997472568        4.8745068580       13.8371686863
  O         0.0009025272        7.7923117992       13.8632128744
  O        -1.6857973354       10.7061920415       13.8563503785
  O         6.7374651611        1.9444371946       13.8632149343
  O         5.0574036412        4.9602414179       13.7216031150
  O         3.4527737089        7.7394351810       13.7216106726
  O         1.6810206318       10.7023960449       13.8632097227
  O        10.1126607145        1.9453738258       13.8518272205
  O         8.4150184866        4.8744783345       13.8371822147
  O         6.6619326302        7.7393628759       13.7215849644
  O         5.0573523096       10.6900353087       13.8371588460
     335
 i =       10, E =    -12260.0346169629
 Zn        -0.0007473332        0.0012644814        5.6893215874
 Zn        -1.6858724766        2.9199012098        5.6882242755
 Zn        -3.3708094859        5.8384866327        5.6896298349
 Zn        -5.0600354774        8.7580340084        5.6981853581
 Zn         3.3715749947        0.0001847666        5.6886589163
 Zn         1.6844265062        2.9196769240        5.6895200968
 Zn        -0.0007201670        5.8385230853        5.6895682392
 Zn        -1.6858233887        8.7594699461        5.6884254984
 Zn         6.7432792310        0.0000572163        5.6884679962
 Zn         5.0572803752        2.9228327096        5.6981257693
 Zn         3.3691626781        5.8383259981        5.6865203494
 Zn         1.6884780211        8.7580547284        5.6982152280
 Zn        10.1155765664        0.0012436389        5.6894560809
 Zn         8.4303184592        2.9198111411        5.6896220675
 Zn         6.7454796025        5.8383744642        5.6865293321
 Zn         5.0573582711        8.7623986051        5.6866538678
 Zn         1.6837340650        0.9743737507       14.4363747865
 Zn        -0.0024731085        3.8917878034       14.4240469777
 Zn        -1.6857854572        6.8108285932       14.4365835262
 Zn        -3.3662971720        9.7358147272       14.4373517441
 Zn         5.0574398594        0.9674396882       14.4373659496
 Zn         3.3587949807        3.8853343660       14.4229724916
 Zn         1.6726467048        6.8057996255       14.4230215807
 Zn        -0.0052611786        9.7358560692       14.4372696429
 Zn         8.4307339445        0.9744557026       14.4364167650
 Zn         6.7559989824        3.8854367936       14.4231423874
 Zn         5.0573670228        6.8130747978       14.4864243517
 Zn         3.3713091757        9.7476996394       14.4231365825
 Zn        11.8004522422        0.9761805879       14.4241801304
 Zn        10.1173056015        3.8917895760       14.4241647795
 Zn         8.4421153808        6.8057270945       14.4230876231
 Zn         6.7433608485        9.7478812446       14.4230124553
 Zn        -0.0000525568        1.9465900203       23.1486220454
 Zn        -1.6858536102        4.8663607509       23.1486732251
 Zn        -3.3710683453        7.7858255524       23.1487863399
 Zn        -5.0574565931       10.7068082965       23.1484876166
 Zn         3.3709412427        1.9464442434       23.1486839664
 Zn         1.6844621848        4.8655978587       23.1487589514
 Zn        -0.0005559018        7.7857405323       23.1485970917
 Zn        -1.6857937835       10.7062145794       23.1480612824
 Zn         6.7438201353        1.9463446012       23.1485456771
 Zn         5.0574070197        4.8657671613       23.1509999121
 Zn         3.3710765092        7.7865780601       23.1508822550
 Zn         1.6858570787       10.7069394374       23.1486360837
 Zn        10.1147275968        1.9464710586       23.1486842760
 Zn         8.4302208319        4.8657171704       23.1489053025
 Zn         6.7436208078        7.7866244116       23.1509805681
 Zn         5.0573935308       10.7077388391       23.1490560442
 In         0.0000426088        0.0001454052        0.0512848677
 In        -1.6857064210        2.9198420090        0.0518056735
 In        -3.3714804399        5.8397580394        0.0511960707
 In        -5.0571005467        8.7596687458        0.0517444174
 In         3.3717379571       -0.0000506750        0.0505606195
 In         1.6857064872        2.9198523671        0.0511659402
 In        -0.0000707014        5.8396086090        0.0513872834
 In        -1.6857889984        8.7597616276        0.0507360713
 In         6.7429188199       -0.0000794016        0.0506014895
 In         5.0573451356        2.9196548489        0.0514948255
 In         3.3714523040        5.8395694715        0.0508389095
 In         1.6856324855        8.7598182492        0.0516292792
 In        10.1147148828       -0.0000640420        0.0511930901
 In         8.4289041728        2.9197918560        0.0511614871
 In         6.7433041029        5.8395496884        0.0507873258
 In         5.0572212350        8.7597720207        0.0508826773
 In         1.6853730452        0.9736191953        8.7595115197
 In        -0.0064642885        3.8894541676        8.7692148069
 In        -1.6857986337        6.8123512486        8.7596517931
 In        -3.3689853590        9.7344635131        8.7689263661
 In         5.0573521164        0.9703022653        8.7686558647
 In         3.3574449299        3.8892664973        8.7805821634
 In         1.6752884870        6.8028112363        8.7806611965
 In        -0.0025981575        9.7344193496        8.7688054149
 In         8.4294498855        0.9737737840        8.7595917610
 In         6.7574280704        3.8892409273        8.7806298606
 In         5.0573230625        6.8130413740        8.7110221037
 In         3.3753094043        9.7470743586        8.7805948668
 In        11.8004343621        0.9806175350        8.7692927797
 In        10.1210007809        3.8894469333        8.7691859142
 In         8.4394379950        6.8025376520        8.7804453541
 In         6.7392939147        9.7472213095        8.7804086880
 In         0.0006512918        1.9462745204       17.5072073899
 In        -1.6857557517        4.8669885447       17.5071222317
 In        -3.3711114596        7.7877198938       17.5051678622
 In        -5.0556885333       10.7060380730       17.5054000937
 In         3.3725897324        1.9453404163       17.5055535615
 In         1.6868637571        4.8669937364       17.5008972106
 In        -0.0004770513        7.7878258158       17.5053819012
 In        -1.6859875699       10.7062316693       17.5170545895
 In         6.7420428256        1.9454891279       17.5053045321
 In         5.0573262978        4.8625588874       17.5303776768
 In         3.3682821275        7.7881672482       17.5303099505
 In         1.6842987804       10.7057762053       17.5053831759
 In        10.1141068858        1.9464041553       17.5072483217
 In         8.4278619734        4.8669538380       17.5006624427
 In         6.7464009871        7.7881447853       17.5302416726
 In         5.0573684913       10.7049770481       17.5006344243
 Ga         0.0001223047       -0.0004186479       20.5783166916
 Ga        -1.6857585748        2.9198749273       20.5780811818
 Ga        -3.3719460608        5.8401830737       20.5783922392
 Ga        -5.0568113634        8.7599274929       20.5826322868
 Ga         3.3713052055        0.0001268806       20.5796047884
 Ga         1.6864048144        2.9200219777       20.5782247612
 Ga         0.0005756894        5.8401387770       20.5783151291
 Ga        -1.6856429154        8.7594663428       20.5797068723
 Ga         6.7433095524        0.0000589363       20.5796082281
 Ga         5.0573264281        2.9192754340       20.5825191717
 Ga         3.3707372976        5.8392885513       20.5853001228
 Ga         1.6852144729        8.7598571312       20.5825560870
 Ga        10.1146108738       -0.0005649729       20.5783249451
 Ga         8.4283547014        2.9200029203       20.5784010402
 Ga         6.7438817023        5.8392514707       20.5852962946
 Ga         5.0572980629        8.7603175532       20.5852869418
 Ga         1.6858329968        0.9733095450        3.1243750432
 Ga         0.0001605339        3.8932569555        3.1239478314
 Ga        -1.6857439232        6.8131606306        3.1242994998
 Ga        -3.3722548594        9.7324416925        3.1245025881
 Ga         5.0573094743        0.9740348895        3.1245313635
 Ga         3.3719635597        3.8928981985        3.1240961608
 Ga         1.6857666566        6.8135125795        3.1240338138
 Ga         0.0006930494        9.7325627028        3.1245950843
 Ga         8.4288464198        0.9732665559        3.1244491687
 Ga         6.7427427638        3.8928918459        3.1240679689
 Ga         5.0573255525        6.8129972515        3.1234010485
 Ga         3.3711820882        9.7326384252        3.1239944413
 Ga        11.8004698469        0.9730887975        3.1240224880
 Ga        10.1145435525        3.8932085225        3.1239920810
 Ga         8.4288885536        6.8134490453        3.1239973346
 Ga         6.7435100523        9.7327478845        3.1240062688
 Ga        -0.0046093158        1.9491698243       11.8488662573
 Ga        -1.6857470282        4.8611367741       11.8488383672
 Ga        -3.3224940198        7.7967229865       11.8507789988
 Ga        -5.0237363955       10.7434679786       11.8508619336
 Ga         3.3561450987        1.8989022367       11.8507699194
 Ga         1.6777448821        4.8617920952       11.8473266040
 Ga        -0.0489882188        7.7968096953       11.8507911583
 Ga        -1.6857025734       10.7060921439       11.8503176042
 Ga         6.7586302499        1.8989141568       11.8508849365
 Ga         5.0573385031        4.6422915454       11.8379771333
 Ga         3.1775522433        7.8984491660       11.8379222108
 Ga         1.6522021783       10.7433223538       11.8507306772
 Ga        10.1191849345        1.9492767291       11.8488382495
 Ga         8.4370676394        4.8618179008       11.8472527150
 Ga         6.9369957318        7.8982797754       11.8380923816
 Ga         5.0573799716       10.7154824335       11.8471943857
  O         0.0003525713       -0.0014754810        3.1548361603
  O        -1.6858005752        2.9198730563        3.1532893947
  O        -3.3727485980        5.8407810617        3.1545687917
  O        -5.0579902395        8.7592329960        3.1543236665
  O         3.3729894552       -0.0008644374        3.1567469565
  O         1.6872382863        2.9204289558        3.1547228531
  O         0.0011642634        5.8407706141        3.1544010328
  O        -1.6856938057        8.7613054178        3.1567365080
  O         6.7416883152       -0.0007468695        3.1566424552
  O         5.0573509833        2.9205092694        3.1541932036
  O         3.3723920660        5.8401845110        3.1573299739
  O         1.6863408390        8.7592807257        3.1544457073
  O        10.1143297191       -0.0015713158        3.1544250162
  O         8.4274045625        2.9203525514        3.1544187396
  O         6.7423225463        5.8402191899        3.1573437262
  O         5.0573902479        8.7585944512        3.1573780396
  O         1.6800779192        0.9766477358       11.8754998136
  O        -0.0000951378        3.8930874296       11.8749482238
  O        -1.6857385417        6.8063438707       11.8755437300
  O        -3.3656582873        9.7362828148       11.8742979986
  O         5.0573642765        0.9664398448       11.8741802158
  O         3.3397960700        3.8293352137       11.8738629843
  O         1.6147227479        6.8174109692       11.8739831551
  O        -0.0058623704        9.7362418362       11.8745266471
  O         8.4346073031        0.9765506441       11.8754933154
  O         6.7749670555        3.8293540416       11.8739478995
  O         3.3322069511        9.7923838387       11.8743194092
  O        11.8004420750        0.9734122295       11.8749515880
  O        10.1148749138        3.8931584674       11.8750809945
  O         8.5000341647        6.8174999419       11.8736595116
  O         6.7826139538        9.7922680046       11.8737965960
  O         0.0011176880        1.9460111699       20.5910321103
  O        -1.6856957560        4.8677644913       20.5910004685
  O        -3.3723824742        7.7860008734       20.5961763213
  O        -5.0582884117       10.7056072090       20.5961007877
  O         3.3716767342        1.9474955574       20.5965056862
  O         1.6857264549        4.8663599371       20.5961298558
  O         0.0008715278        7.7858329620       20.5960799992
  O        -1.6858047909       10.7062377393       20.5961249248
  O         6.7430304734        1.9474665933       20.5960440714
  O         5.0573119795        4.8669794227       20.5928667102
  O         3.3719572480        7.7860899004       20.5927661728
  O         1.6865885897       10.7055827402       20.5961369106
  O        10.1136130072        1.9459372146       20.5909878006
  O         8.4290100389        4.8664242841       20.5958873164
  O         6.7427386980        7.7860666660       20.5926674168
  O         5.0574474065       10.7061687931       20.5957111964
  O        -0.0047647508       -0.0010584696        7.6998669505
  O        -1.6857759701        2.9198699348        7.6968282286
  O        -3.3748755205        5.8360330016        7.7001096422
  O        -5.0946803376        8.7380169806        7.7320285569
  O         3.3721269951       -0.0004714247        7.6959606544
  O         1.6842825193        2.9249054971        7.7001338183
  O         0.0034557076        5.8359494907        7.7001217110
  O        -1.6859196652        8.7601254037        7.6958764581
  O         6.7426077630       -0.0003817844        7.6957836066
  O         5.0574582538        2.9631036959        7.7319053318
  O         3.3717620138        5.8398977824        7.7162663288
  O         1.7230812500        8.7379637256        7.7320130110
  O        10.1196245242       -0.0011270350        7.7000304893
  O         8.4305051114        2.9249247640        7.7000944251
  O         6.7427491937        5.8398676935        7.7162397667
  O         5.0573123264        8.7590998123        7.7163483717
  O         1.6852607596        0.9736529891       16.4251128484
  O         0.0033607416        3.8951881212       16.4179427879
  O        -1.6857311937        6.8123220345       16.4252934502
  O        -3.3713818652        9.7328654467       16.4279604499
  O         5.0574132179        0.9730561854       16.4279030774
  O         3.3872383122        3.9046505610       16.4059415382
  O         1.7035874372        6.8207846301       16.4060110388
  O        -0.0001155696        9.7330280497       16.4279132553
  O         8.4294614480        0.9735724678       16.4252147907
  O         6.7274677916        3.9047047835       16.4061029847
  O         5.0573312167        6.8130677054       16.4273714524
  O         3.3738240705        9.7136251046       16.4061123310
  O        11.8003214153        0.9695103656       16.4180757368
  O        10.1113903897        3.8950367088       16.4180566370
  O         8.4109050398        6.8210049347       16.4060397659
  O         6.7411624658        9.7136473113       16.4060316558
  O        -0.0001368389        1.9465696915       25.1484417511
  O        -1.6858243212        4.8662682353       25.1485305566
  O        -3.3717195675        7.7861694236       25.1487331359
  O        -5.0576893272       10.7058984503       25.1485295185
  O         3.3715036214        1.9468118996       25.1486795596
  O         1.6858544217        4.8665830210       25.1482323682
  O         0.0002410820        7.7859951809       25.1487078743
  O        -1.6857793748       10.7060613693       25.1483792156
  O         6.7431328731        1.9468702881       25.1486174801
  O         5.0573578432        4.8667510000       25.1490904486
  O         3.3715965743        7.7862532505       25.1490025457
  O         1.6860127383       10.7062391734       25.1486896040
  O        10.1148520479        1.9466346823       25.1485757131
  O         8.4290578374        4.8665394413       25.1484113761
  O         6.7432402484        7.7863068397       25.1490675322
  O         5.0574422863       10.7058886338       25.1484966665
  O        -0.0011053639       -0.0066047509       18.5864912406
  O        -1.6858290831        2.9198617548       18.5885313664
  O        -3.3775498431        5.8420604596       18.5865403674
  O        -5.0567874540        8.7597761227       18.5926686318
  O         3.3697935188        0.0008267505       18.5941869937
  O         1.6906703449        2.9238847369       18.5864620554
  O         0.0057154384        5.8421755488       18.5864486932
  O        -1.6858723849        8.7576608495       18.5941774191
  O         6.7448910225        0.0009445936       18.5940052426
  O         5.0575275755        2.9191968785       18.5926006451
  O         3.3703357288        5.8390884735       18.5928416255
  O         1.6852774523        8.7599355585       18.5925600860
  O        10.1157344546       -0.0063358315       18.5864097213
  O         8.4238748620        2.9238197042       18.5865825216
  O         6.7445403555        5.8390267872       18.5928418781
  O         5.0574340628        8.7611939110       18.5928083500
  O         1.6863157536        0.9730570501        1.1459500506
  O         0.0002870989        3.8934396330        1.1454548525
  O        -1.6858325309        6.8133872913        1.1458906009
  O        -3.3718081955        9.7328678311        1.1456508389
  O         5.0574354352        0.9733654898        1.1457349370
  O         3.3717612539        3.8937507901        1.1455627293
  O         1.6862630333        6.8127426112        1.1455861042
  O         0.0000888807        9.7328124031        1.1456958580
  O         8.4284922918        0.9729842978        1.1459613747
  O         6.7430865909        3.8938224141        1.1456456569
  O         5.0574551188        6.8130963661        1.1459580722
  O         3.3720171608        9.7324770943        1.1455880652
  O        11.8003879159        0.9730039324        1.1454272856
  O        10.1142450565        3.8933815303        1.1454077050
  O         8.4283237472        6.8127157136        1.1455244132
  O         6.7425156545        9.7322590816        1.1454789748
  O         0.0021254126        1.9454101630        9.8700284164
  O        -1.6858936643        4.8689323968        9.8699920311
  O        -3.3693782937        7.7907537457        9.8652795676
  O        -5.0524045733       10.7058787803        9.8653419883
  O         3.3743232260        1.9424249036        9.8652991470
  O         1.6936442155        4.8711309775        9.8773658822
  O        -0.0025011705        7.7906673796        9.8653465582
  O        -1.6859918127       10.7062461724        9.8687626123
  O         6.7402823308        1.9423931850        9.8653951755
  O         5.0571897501        4.9719673208        9.9746077469
  O         3.4628434823        7.7335332729        9.9745723370
  O         1.6806619341       10.7060152272        9.8652685608
  O        10.1126757813        1.9454188522        9.8700283832
  O         8.4210660685        4.8710695611        9.8773135115
  O         6.6521412032        7.7336673578        9.9746871658
  O         5.0573913573       10.6969255320        9.8772323379
  O        -0.0001742080        0.0006740710       22.5816165374
  O        -1.6857976418        2.9198376931       22.5788375674
  O        -3.3711112767        5.8392230666       22.5816901344
  O        -5.0582775303        8.7589943231       22.5835732777
  O         3.3713902116        0.0002070619       22.5823346280
  O         1.6850681863        2.9196633201       22.5815336139
  O        -0.0005470361        5.8391130931       22.5816325882
  O        -1.6858046499        8.7593555377       22.5823820403
  O         6.7432615268        0.0001093681       22.5823439976
  O         5.0573265689        2.9208530339       22.5834664575
  O         3.3720658746        5.8399284845       22.5840435306
  O         1.6867036717        8.7591254451       22.5835722056
  O        10.1149716896        0.0005334863       22.5815832946
  O         8.4296461647        2.9197741844       22.5816911832
  O         6.7426665073        5.8401294356       22.5839986589
  O         5.0573660880        8.7591195375       22.5839964454
  O         1.6850364161        0.9734687146        5.1381663856
  O         0.0002492404        3.8933091496        5.1367474003
  O        -1.6857965070        6.8120769763        5.1381314332
  O        -3.3772863301        9.7297330179        5.1435773323
  O         5.0573690338        0.9797686260        5.1435204719
  O         3.3732973173        3.8939465930        5.1432347477
  O         1.6873369849        6.8140577314        5.1431231177
  O         0.0056837678        9.7295554588        5.1436797187
  O         8.4297401126        0.9736883999        5.1383198113
  O         6.7413779929        3.8939763129        5.1432598588
  O         5.0573868821        6.8130761828        5.1480455662
  O         3.3714366092        9.7309660370        5.1431386298
  O        11.8005494196        0.9731110678        5.1366571255
  O        10.1143809596        3.8933625905        5.1367392325
  O         8.4273720899        6.8140665729        5.1432165300
  O         6.7433250579        9.7309707182        5.1432030819
  O         0.0021390612        1.9454259530       13.8520020368
  O        -1.6857818957        4.8690085420       13.8519759650
  O        -3.3725060653        7.7916374802       13.8632819585
  O        -5.0530952930       10.7026026534       13.8633479351
  O         3.3766857674        1.9446344799       13.8632602606
  O         1.6991182606        4.8741308598       13.8370751184
  O         0.0008693532        7.7916304969       13.8632342827
  O        -1.6858473094       10.7063318601       13.8568002355
  O         6.7380160765        1.9447666263       13.8632805120
  O         5.0573541224        4.9606297464       13.7217699029
  O         3.4529863262        7.7391479333       13.7217690458
  O         1.6816223143       10.7027057478       13.8632505576
  O        10.1125076189        1.9453621642       13.8520557143
  O         8.4157131321        4.8740666870       13.8371223154
  O         6.6617182348        7.7392693310       13.7218588318
  O         5.0573268693       10.6908246344       13.8370338791
     335
 i =       11, E =    -12260.0346279644
 Zn        -0.0007140951        0.0011547516        5.6894377923
 Zn        -1.6858358504        2.9199026420        5.6881844322
 Zn        -3.3709111982        5.8385404071        5.6895977122
 Zn        -5.0602272842        8.7579295976        5.6986322927
 Zn         3.3714798108        0.0001018615        5.6886698725
 Zn         1.6844718668        2.9198578989        5.6895950041
 Zn        -0.0006279062        5.8385497013        5.6896253393
 Zn        -1.6858090404        8.7594116220        5.6885640463
 Zn         6.7433279168        0.0000679392        5.6886206359
 Zn         5.0573125738        2.9231289328        5.6986352193
 Zn         3.3690767123        5.8382786547        5.6870371011
 Zn         1.6886411303        8.7579335946        5.6986799015
 Zn        10.1155181825        0.0011440303        5.6895842098
 Zn         8.4302459983        2.9199135854        5.6896656039
 Zn         6.7455711444        5.8383281916        5.6870121960
 Zn         5.0573748076        8.7624256859        5.6870814227
 Zn         1.6841201920        0.9741879399       14.4366701196
 Zn        -0.0025054551        3.8917342009       14.4239725474
 Zn        -1.6857610233        6.8112108953       14.4367569267
 Zn        -3.3663363549        9.7358484785       14.4372351762
 Zn         5.0574046494        0.9673697609       14.4372935774
 Zn         3.3584250919        3.8853700766       14.4228004491
 Zn         1.6724974647        6.8054882800       14.4227688117
 Zn        -0.0052085319        9.7358723893       14.4371828790
 Zn         8.4304520440        0.9742044951       14.4366547036
 Zn         6.7563461076        3.8854387681       14.4228190991
 Zn         5.0573747877        6.8130520849       14.4862079107
 Zn         3.3714658767        9.7480497527       14.4227767294
 Zn        11.8004222339        0.9762217223       14.4240043883
 Zn        10.1173205896        3.8917277985       14.4239741857
 Zn         8.4422657590        6.8054730505       14.4227673518
 Zn         6.7432177680        9.7481803845       14.4227398485
 Zn        -0.0001023206        1.9466216961       23.1487279378
 Zn        -1.6858139045        4.8663253339       23.1487268216
 Zn        -3.3711453675        7.7858084618       23.1487809612
 Zn        -5.0575863558       10.7067333103       23.1486412540
 Zn         3.3709553575        1.9464986722       23.1486827255
 Zn         1.6845897484        4.8657291989       23.1489067223
 Zn        -0.0004539377        7.7857191948       23.1486994438
 Zn        -1.6857667491       10.7061851214       23.1480890905
 Zn         6.7438053753        1.9464270555       23.1486015577
 Zn         5.0573707336        4.8659400549       23.1509462536
 Zn         3.3711396786        7.7865447244       23.1508908443
 Zn         1.6859693346       10.7068133247       23.1486397800
 Zn        10.1147810173        1.9465419546       23.1487248136
 Zn         8.4301087228        4.8657831230       23.1489410528
 Zn         6.7435459287        7.7865562390       23.1509528527
 Zn         5.0573793722       10.7075289699       23.1490425812
 In         0.0000707665       -0.0000257776        0.0510282466
 In        -1.6858212939        2.9198562251        0.0516313692
 In        -3.3715587075        5.8397366223        0.0510151482
 In        -5.0572311505        8.7596650266        0.0514745236
 In         3.3716525922       -0.0000656436        0.0504068371
 In         1.6858145997        2.9198871552        0.0509510588
 In         0.0000156745        5.8397428945        0.0511273643
 In        -1.6857426486        8.7596862034        0.0505276191
 In         6.7430138404       -0.0000457451        0.0505042667
 In         5.0573494462        2.9196948403        0.0513715521
 In         3.3714098555        5.8396242667        0.0506297638
 In         1.6855953844        8.7596943443        0.0513684830
 In        10.1146605804       -0.0000365546        0.0510394922
 In         8.4289187993        2.9198211854        0.0510341322
 In         6.7433404734        5.8396416095        0.0506182076
 In         5.0573529442        8.7597314231        0.0506562144
 In         1.6851170000        0.9737274666        8.7589753237
 In        -0.0063652473        3.8895008672        8.7692127429
 In        -1.6858062049        6.8121769017        8.7590612246
 In        -3.3691233385        9.7343139168        8.7686673244
 In         5.0573719040        0.9704220085        8.7684587958
 In         3.3571573515        3.8893616377        8.7807561914
 In         1.6751847952        6.8024600912        8.7808101061
 In        -0.0025399464        9.7343533775        8.7684840381
 In         8.4296360547        0.9737654326        8.7590208319
 In         6.7575541688        3.8893201855        8.7808142436
 In         5.0573545632        6.8130007410        8.7115978393
 In         3.3754014132        9.7472964940        8.7807206837
 In        11.8004788589        0.9806175786        8.7692505507
 In        10.1210568023        3.8895056283        8.7691911123
 In         8.4395016056        6.8024586888        8.7807023416
 In         6.7392963526        9.7473403569        8.7806448988
 In         0.0002443586        1.9464361989       17.5074268741
 In        -1.6857453928        4.8667023185       17.5074652506
 In        -3.3712009382        7.7878515363       17.5057675144
 In        -5.0557662918       10.7057396033       17.5058478709
 In         3.3727370522        1.9454181299       17.5058315934
 In         1.6868989379        4.8670959285       17.5010398575
 In        -0.0004362740        7.7879285703       17.5058248867
 In        -1.6858228184       10.7061509920       17.5169886141
 In         6.7419852689        1.9453805237       17.5057838372
 In         5.0573272883        4.8625127326       17.5302171286
 In         3.3681931584        7.7882449794       17.5301866474
 In         1.6842061630       10.7057381667       17.5058101384
 In        10.1144189115        1.9464618586       17.5075347767
 In         8.4278019867        4.8670740364       17.5010598013
 In         6.7465418102        7.7882945998       17.5302086956
 In         5.0573928892       10.7048990412       17.5009927691
 Ga         0.0000667916       -0.0006560168       20.5784203329
 Ga        -1.6858077467        2.9198458851       20.5783100932
 Ga        -3.3720780301        5.8401307749       20.5784613610
 Ga        -5.0568405508        8.7598874053       20.5825194012
 Ga         3.3714213242        0.0000792077       20.5797768149
 Ga         1.6863117733        2.9200826600       20.5784648062
 Ga         0.0004385962        5.8401326345       20.5784680710
 Ga        -1.6857944506        8.7594016735       20.5797790998
 Ga         6.7432863870        0.0001068572       20.5797285198
 Ga         5.0573880001        2.9192245212       20.5825456164
 Ga         3.3709463447        5.8393611856       20.5848871644
 Ga         1.6852847805        8.7599348705       20.5825509703
 Ga        10.1146186330       -0.0006007238       20.5784483893
 Ga         8.4283832140        2.9200994596       20.5784803201
 Ga         6.7438485988        5.8393685099       20.5848280952
 Ga         5.0573746673        8.7603605448       20.5848117913
 Ga         1.6858766824        0.9732047706        3.1243929964
 Ga         0.0001139279        3.8932425350        3.1240168732
 Ga        -1.6857880696        6.8131322030        3.1243832686
 Ga        -3.3722917632        9.7324836822        3.1246048236
 Ga         5.0573728482        0.9740803575        3.1245279076
 Ga         3.3719411187        3.8928474097        3.1240372164
 Ga         1.6856851307        6.8134841657        3.1240361145
 Ga         0.0006956559        9.7324580315        3.1246089108
 Ga         8.4288183665        0.9732299567        3.1243479809
 Ga         6.7427873679        3.8928326717        3.1239727553
 Ga         5.0573801389        6.8130421744        3.1235490656
 Ga         3.3711021522        9.7327194700        3.1240117715
 Ga        11.8004811486        0.9731834399        3.1240357434
 Ga        10.1145643252        3.8932374499        3.1240065819
 Ga         8.4289771016        6.8134641298        3.1240321964
 Ga         6.7435915630        9.7326850302        3.1240515666
 Ga        -0.0046901638        1.9492893732       11.8489511336
 Ga        -1.6857999176        4.8610371628       11.8489760480
 Ga        -3.3226596335        7.7966950176       11.8510896053
 Ga        -5.0238310351       10.7433134535       11.8511139146
 Ga         3.3561485405        1.8989758905       11.8510585910
 Ga         1.6774728545        4.8616316512       11.8474785862
 Ga        -0.0489342512        7.7967761721       11.8511508600
 Ga        -1.6858057657       10.7061822045       11.8508369556
 Ga         6.7585929067        1.8990298293       11.8511438407
 Ga         5.0573704027        4.6429222452       11.8381036933
 Ga         3.1779925031        7.8980975975       11.8381068489
 Ga         1.6522584341       10.7432681065       11.8511407855
 Ga        10.1193853157        1.9492973069       11.8489795539
 Ga         8.4373112070        4.8616317746       11.8474652170
 Ga         6.9367728902        7.8980638442       11.8381049523
 Ga         5.0573549884       10.7157929673       11.8474802996
  O         0.0003002502       -0.0015252600        3.1546465549
  O        -1.6858234612        2.9199090495        3.1533184015
  O        -3.3727598767        5.8407623886        3.1546586844
  O        -5.0579825083        8.7591861904        3.1544288009
  O         3.3730460498       -0.0008264440        3.1567262533
  O         1.6872131303        2.9203765501        3.1546984157
  O         0.0011266082        5.8407445305        3.1545857907
  O        -1.6857585067        8.7612593110        3.1567301790
  O         6.7417140995       -0.0008230542        3.1567845516
  O         5.0573558006        2.9205827701        3.1544450249
  O         3.3724353146        5.8402094496        3.1573314228
  O         1.6864024667        8.7592223541        3.1544693394
  O        10.1143825034       -0.0015221556        3.1546445467
  O         8.4274506892        2.9203357827        3.1546636487
  O         6.7423391227        5.8402162069        3.1573721455
  O         5.0573450951        8.7586386115        3.1573485539
  O         1.6799822865        0.9766333354       11.8754931560
  O        -0.0003914958        3.8929795986       11.8749843069
  O        -1.6858019624        6.8062802117       11.8754755145
  O        -3.3655110383        9.7363406104       11.8740558520
  O         5.0573709909        0.9663245330       11.8740251959
  O         3.3397292609        3.8293643584       11.8737667933
  O         1.6146408585        6.8173035569       11.8737780745
  O        -0.0060853889        9.7363601250       11.8740414214
  O         8.4347031538        0.9766475268       11.8754443413
  O         6.7750589438        3.8293992110       11.8737479921
  O         3.3322766486        9.7924015814       11.8737869659
  O        11.8005119985        0.9736926454       11.8749460354
  O        10.1150939495        3.8929683406       11.8749832344
  O         8.5001176960        6.8172741392       11.8737738817
  O         6.7824656288        9.7923697992       11.8737959712
  O         0.0010724680        1.9458639281       20.5908454946
  O        -1.6858220352        4.8677252714       20.5909260510
  O        -3.3724780938        7.7859209991       20.5959763840
  O        -5.0581918668       10.7055829434       20.5959171393
  O         3.3716624693        1.9475190251       20.5958622972
  O         1.6858882689        4.8665480390       20.5955784913
  O         0.0009013163        7.7859171413       20.5959032389
  O        -1.6857378280       10.7061788163       20.5958814729
  O         6.7430967056        1.9475072223       20.5959114538
  O         5.0574099188        4.8669600391       20.5926888511
  O         3.3720611222        7.7861125935       20.5927019271
  O         1.6865567200       10.7056372174       20.5958962345
  O        10.1135626814        1.9459024586       20.5909225331
  O         8.4287975370        4.8665060082       20.5956502456
  O         6.7426769396        7.7860634301       20.5926714574
  O         5.0573550631       10.7060405950       20.5955720328
  O        -0.0050501759       -0.0011296348        7.7000360775
  O        -1.6857845467        2.9198561113        7.6967160178
  O        -3.3751342514        5.8358550005        7.7001060997
  O        -5.0952354963        8.7376960318        7.7326483399
  O         3.3720846660       -0.0003206368        7.6960046624
  O         1.6842476929        2.9249783548        7.7001982813
  O         0.0035556445        5.8358579702        7.7001672205
  O        -1.6858532286        8.7601397050        7.6959937276
  O         6.7426403957       -0.0002951346        7.6959670488
  O         5.0574062792        2.9636694054        7.7326362231
  O         3.3719319315        5.8400119706        7.7164013901
  O         1.7235772531        8.7376785877        7.7327291742
  O        10.1198506120       -0.0011608300        7.7001756595
  O         8.4305032293        2.9250599528        7.7001929678
  O         6.7427261399        5.8399184305        7.7163759000
  O         5.0573095651        8.7590642174        7.7164429044
  O         1.6852750910        0.9736168357       16.4252748252
  O         0.0035545506        3.8951881400       16.4179272539
  O        -1.6858047693        6.8123692564       16.4252796958
  O        -3.3713859312        9.7329333644       16.4279611847
  O         5.0573251365        0.9731147741       16.4279636634
  O         3.3871487751        3.9043880800       16.4058646916
  O         1.7033399091        6.8208973797       16.4058405677
  O        -0.0000845866        9.7329571940       16.4279025338
  O         8.4294777799        0.9736268983       16.4252340617
  O         6.7275851878        3.9044256679       16.4058824136
  O         5.0573515844        6.8130336460       16.4268690490
  O         3.3735981068        9.7137937281       16.4058286540
  O        11.8004147507        0.9692873050       16.4179104963
  O        10.1111433823        3.8951697676       16.4179266764
  O         8.4112345122        6.8209276045       16.4057923270
  O         6.7412596487        9.7138607234       16.4057948637
  O        -0.0001429270        1.9466062318       25.1486044711
  O        -1.6857771532        4.8662373684       25.1486031788
  O        -3.3716398708        7.7862037913       25.1487468362
  O        -5.0575576323       10.7060840918       25.1486799387
  O         3.3715321253        1.9467724997       25.1487064060
  O         1.6858360423        4.8664487608       25.1484348816
  O         0.0001296860        7.7861478843       25.1487490881
  O        -1.6857595492       10.7061147894       25.1484473700
  O         6.7431314279        1.9467989533       25.1486705490
  O         5.0573673278        4.8666949328       25.1491907753
  O         3.3716692645        7.7862330010       25.1491568587
  O         1.6859550955       10.7061716896       25.1486923567
  O        10.1148569016        1.9466205859       25.1485933791
  O         8.4289531789        4.8664219758       25.1484713583
  O         6.7430639014        7.7861923071       25.1491587841
  O         5.0573480550       10.7060912998       25.1485311670
  O        -0.0008625550       -0.0062933857       18.5866149887
  O        -1.6857916438        2.9198515032       18.5888702971
  O        -3.3774678006        5.8420859966       18.5866518299
  O        -5.0566585022        8.7599024296       18.5926999931
  O         3.3698416306        0.0009826340       18.5942684590
  O         1.6907860420        2.9237411881       18.5866910020
  O         0.0058476407        5.8421716833       18.5866543147
  O        -1.6857960687        8.7577068242       18.5942459769
  O         6.7447938285        0.0009233565       18.5941613920
  O         5.0573727778        2.9191148168       18.5927066407
  O         3.3700285796        5.8388477107       18.5924067914
  O         1.6851715670        8.7599609590       18.5926678402
  O        10.1155993118       -0.0063076633       18.5866031309
  O         8.4238679751        2.9237849813       18.5866913024
  O         6.7446645502        5.8388202803       18.5923470678
  O         5.0573255589        8.7613605909       18.5923185742
  O         1.6861587660        0.9731394092        1.1459233384
  O         0.0003281691        3.8933011469        1.1454526558
  O        -1.6858094229        6.8134167800        1.1459484468
  O        -3.3715981822        9.7328712841        1.1457075310
  O         5.0573178185        0.9732729073        1.1456521211
  O         3.3716844601        3.8938787231        1.1454801949
  O         1.6864492937        6.8127485873        1.1455701331
  O         0.0000134770        9.7328684003        1.1456854237
  O         8.4285450483        0.9730573220        1.1458644968
  O         6.7430351333        3.8939262109        1.1454998525
  O         5.0573668736        6.8129857843        1.1459580962
  O         3.3721125615        9.7323701202        1.1455279862
  O        11.8005526773        0.9729452349        1.1454097263
  O        10.1143427474        3.8933358205        1.1454261598
  O         8.4282703541        6.8127097417        1.1455420648
  O         6.7424725786        9.7323951752        1.1455483627
  O         0.0020551966        1.9453698167        9.8699491042
  O        -1.6858362865        4.8688441094        9.8699642680
  O        -3.3695108241        7.7909446389        9.8655830120
  O        -5.0522716377       10.7056829940        9.8655746501
  O         3.3746532855        1.9424740090        9.8655291743
  O         1.6937526922        4.8711149570        9.8776203182
  O        -0.0021352248        7.7910403648        9.8656635653
  O        -1.6858215917       10.7061923616        9.8687266797
  O         6.7400760058        1.9424783192        9.8655836826
  O         5.0572764467        4.9719588730        9.9750514921
  O         3.4628638046        7.7336548738        9.9750327053
  O         1.6805871405       10.7055981491        9.8656426128
  O        10.1126445978        1.9454014286        9.8699877814
  O         8.4209595684        4.8710501364        9.8775745489
  O         6.6518700626        7.7335885298        9.9750809645
  O         5.0573379054       10.6968625312        9.8775564850
  O        -0.0002447617        0.0007150076       22.5816298985
  O        -1.6857903382        2.9198401899       22.5789269829
  O        -3.3710948906        5.8391658529       22.5816677145
  O        -5.0582528207        8.7590344185       22.5835029094
  O         3.3713002339        0.0001697475       22.5824663845
  O         1.6850242485        2.9197325785       22.5816547956
  O        -0.0005097937        5.8391117185       22.5816544319
  O        -1.6857498595        8.7592735737       22.5824143852
  O         6.7433705572        0.0001386969       22.5824168886
  O         5.0573469064        2.9208725554       22.5835305675
  O         3.3720015809        5.8399526424       22.5838407050
  O         1.6866550272        8.7590932670       22.5835697016
  O        10.1150153361        0.0006033306       22.5816103728
  O         8.4296700241        2.9197757728       22.5816763712
  O         6.7427019915        5.8400683266       22.5837789326
  O         5.0573505316        8.7590949737       22.5837674029
  O         1.6849803963        0.9736468144        5.1382315780
  O         0.0002662724        3.8933477215        5.1367821752
  O        -1.6857709950        6.8120182038        5.1382098984
  O        -3.3773934761        9.7295459931        5.1436072476
  O         5.0573485144        0.9799565020        5.1435656130
  O         3.3732809120        3.8939651148        5.1431662925
  O         1.6873376505        6.8140223315        5.1431130325
  O         0.0057985943        9.7294848323        5.1436590308
  O         8.4297876122        0.9737674198        5.1382641828
  O         6.7414192720        3.8940000179        5.1431548584
  O         5.0573688614        6.8130152892        5.1481525017
  O         3.3714654632        9.7309751358        5.1431753782
  O        11.8005159856        0.9730308167        5.1367012155
  O        10.1143774171        3.8933611108        5.1367439991
  O         8.4273547906        6.8140657529        5.1432164692
  O         6.7432885592        9.7309725714        5.1432040188
  O         0.0023348126        1.9452700198       13.8521642899
  O        -1.6857779205        4.8691991245       13.8521852152
  O        -3.3725504351        7.7915951026       13.8634163289
  O        -5.0531941946       10.7026238220       13.8634166473
  O         3.3766864826        1.9447594052       13.8633837710
  O         1.6989269975        4.8740129357       13.8370142063
  O         0.0009585587        7.7916060213       13.8634172663
  O        -1.6858093472       10.7062567736       13.8575159298
  O         6.7380485858        1.9448014239       13.8634135362
  O         5.0573410311        4.9605456313       13.7223912409
  O         3.4529672217        7.7392173516       13.7224524165
  O         1.6816809622       10.7026764648       13.8634269965
  O        10.1123050907        1.9452350942       13.8522183876
  O         8.4158825302        4.8739974051       13.8371126073
  O         6.6617306582        7.7393152421       13.7223747283
  O         5.0573627646       10.6910347040       13.8370774759
     335
 i =       12, E =    -12260.0346275485
 Zn        -0.0007140951        0.0011547516        5.6894377923
 Zn        -1.6858358504        2.9199026420        5.6881844322
 Zn        -3.3709111982        5.8385404071        5.6895977122
 Zn        -5.0602272842        8.7579295976        5.6986322927
 Zn         3.3714798108        0.0001018615        5.6886698725
 Zn         1.6844718668        2.9198578989        5.6895950041
 Zn        -0.0006279062        5.8385497013        5.6896253393
 Zn        -1.6858090404        8.7594116220        5.6885640463
 Zn         6.7433279168        0.0000679392        5.6886206359
 Zn         5.0573125738        2.9231289328        5.6986352193
 Zn         3.3690767123        5.8382786547        5.6870371011
 Zn         1.6886411303        8.7579335946        5.6986799015
 Zn        10.1155181825        0.0011440303        5.6895842098
 Zn         8.4302459983        2.9199135854        5.6896656039
 Zn         6.7455711444        5.8383281916        5.6870121960
 Zn         5.0573748076        8.7624256859        5.6870814227
 Zn         1.6841201920        0.9741879399       14.4366701196
 Zn        -0.0025054551        3.8917342009       14.4239725474
 Zn        -1.6857610233        6.8112108953       14.4367569267
 Zn        -3.3663363549        9.7358484785       14.4372351762
 Zn         5.0574046494        0.9673697609       14.4372935774
 Zn         3.3584250919        3.8853700766       14.4228004491
 Zn         1.6724974647        6.8054882800       14.4227688117
 Zn        -0.0052085319        9.7358723893       14.4371828790
 Zn         8.4304520440        0.9742044951       14.4366547036
 Zn         6.7563461076        3.8854387681       14.4228190991
 Zn         5.0573747877        6.8130520849       14.4862079107
 Zn         3.3714658767        9.7480497527       14.4227767294
 Zn        11.8004222339        0.9762217223       14.4240043883
 Zn        10.1173205896        3.8917277985       14.4239741857
 Zn         8.4422657590        6.8054730505       14.4227673518
 Zn         6.7432177680        9.7481803845       14.4227398485
 Zn        -0.0001023206        1.9466216961       23.1487279378
 Zn        -1.6858139045        4.8663253339       23.1487268216
 Zn        -3.3711453675        7.7858084618       23.1487809612
 Zn        -5.0575863558       10.7067333103       23.1486412540
 Zn         3.3709553575        1.9464986722       23.1486827255
 Zn         1.6845897484        4.8657291989       23.1489067223
 Zn        -0.0004539377        7.7857191948       23.1486994438
 Zn        -1.6857667491       10.7061851214       23.1480890905
 Zn         6.7438053753        1.9464270555       23.1486015577
 Zn         5.0573707336        4.8659400549       23.1509462536
 Zn         3.3711396786        7.7865447244       23.1508908443
 Zn         1.6859693346       10.7068133247       23.1486397800
 Zn        10.1147810173        1.9465419546       23.1487248136
 Zn         8.4301087228        4.8657831230       23.1489410528
 Zn         6.7435459287        7.7865562390       23.1509528527
 Zn         5.0573793722       10.7075289699       23.1490425812
 In         0.0000707665       -0.0000257776        0.0510282466
 In        -1.6858212939        2.9198562251        0.0516313692
 In        -3.3715587075        5.8397366223        0.0510151482
 In        -5.0572311505        8.7596650266        0.0514745236
 In         3.3716525922       -0.0000656436        0.0504068371
 In         1.6858145997        2.9198871552        0.0509510588
 In         0.0000156745        5.8397428945        0.0511273643
 In        -1.6857426486        8.7596862034        0.0505276191
 In         6.7430138404       -0.0000457451        0.0505042667
 In         5.0573494462        2.9196948403        0.0513715521
 In         3.3714098555        5.8396242667        0.0506297638
 In         1.6855953844        8.7596943443        0.0513684830
 In        10.1146605804       -0.0000365546        0.0510394922
 In         8.4289187993        2.9198211854        0.0510341322
 In         6.7433404734        5.8396416095        0.0506182076
 In         5.0573529442        8.7597314231        0.0506562144
 In         1.6851170000        0.9737274666        8.7589753237
 In        -0.0063652473        3.8895008672        8.7692127429
 In        -1.6858062049        6.8121769017        8.7590612246
 In        -3.3691233385        9.7343139168        8.7686673244
 In         5.0573719040        0.9704220085        8.7684587958
 In         3.3571573515        3.8893616377        8.7807561914
 In         1.6751847952        6.8024600912        8.7808101061
 In        -0.0025399464        9.7343533775        8.7684840381
 In         8.4296360547        0.9737654326        8.7590208319
 In         6.7575541688        3.8893201855        8.7808142436
 In         5.0573545632        6.8130007410        8.7115978393
 In         3.3754014132        9.7472964940        8.7807206837
 In        11.8004788589        0.9806175786        8.7692505507
 In        10.1210568023        3.8895056283        8.7691911123
 In         8.4395016056        6.8024586888        8.7807023416
 In         6.7392963526        9.7473403569        8.7806448988
 In         0.0002443586        1.9464361989       17.5074268741
 In        -1.6857453928        4.8667023185       17.5074652506
 In        -3.3712009382        7.7878515363       17.5057675144
 In        -5.0557662918       10.7057396033       17.5058478709
 In         3.3727370522        1.9454181299       17.5058315934
 In         1.6868989379        4.8670959285       17.5010398575
 In        -0.0004362740        7.7879285703       17.5058248867
 In        -1.6858228184       10.7061509920       17.5169886141
 In         6.7419852689        1.9453805237       17.5057838372
 In         5.0573272883        4.8625127326       17.5302171286
 In         3.3681931584        7.7882449794       17.5301866474
 In         1.6842061630       10.7057381667       17.5058101384
 In        10.1144189115        1.9464618586       17.5075347767
 In         8.4278019867        4.8670740364       17.5010598013
 In         6.7465418102        7.7882945998       17.5302086956
 In         5.0573928892       10.7048990412       17.5009927691
 Ga         0.0000667916       -0.0006560168       20.5784203329
 Ga        -1.6858077467        2.9198458851       20.5783100932
 Ga        -3.3720780301        5.8401307749       20.5784613610
 Ga        -5.0568405508        8.7598874053       20.5825194012
 Ga         3.3714213242        0.0000792077       20.5797768149
 Ga         1.6863117733        2.9200826600       20.5784648062
 Ga         0.0004385962        5.8401326345       20.5784680710
 Ga        -1.6857944506        8.7594016735       20.5797790998
 Ga         6.7432863870        0.0001068572       20.5797285198
 Ga         5.0573880001        2.9192245212       20.5825456164
 Ga         3.3709463447        5.8393611856       20.5848871644
 Ga         1.6852847805        8.7599348705       20.5825509703
 Ga        10.1146186330       -0.0006007238       20.5784483893
 Ga         8.4283832140        2.9200994596       20.5784803201
 Ga         6.7438485988        5.8393685099       20.5848280952
 Ga         5.0573746673        8.7603605448       20.5848117913
 Ga         1.6858766824        0.9732047706        3.1243929964
 Ga         0.0001139279        3.8932425350        3.1240168732
 Ga        -1.6857880696        6.8131322030        3.1243832686
 Ga        -3.3722917632        9.7324836822        3.1246048236
 Ga         5.0573728482        0.9740803575        3.1245279076
 Ga         3.3719411187        3.8928474097        3.1240372164
 Ga         1.6856851307        6.8134841657        3.1240361145
 Ga         0.0006956559        9.7324580315        3.1246089108
 Ga         8.4288183665        0.9732299567        3.1243479809
 Ga         6.7427873679        3.8928326717        3.1239727553
 Ga         5.0573801389        6.8130421744        3.1235490656
 Ga         3.3711021522        9.7327194700        3.1240117715
 Ga        11.8004811486        0.9731834399        3.1240357434
 Ga        10.1145643252        3.8932374499        3.1240065819
 Ga         8.4289771016        6.8134641298        3.1240321964
 Ga         6.7435915630        9.7326850302        3.1240515666
 Ga        -0.0046901638        1.9492893732       11.8489511336
 Ga        -1.6857999176        4.8610371628       11.8489760480
 Ga        -3.3226596335        7.7966950176       11.8510896053
 Ga        -5.0238310351       10.7433134535       11.8511139146
 Ga         3.3561485405        1.8989758905       11.8510585910
 Ga         1.6774728545        4.8616316512       11.8474785862
 Ga        -0.0489342512        7.7967761721       11.8511508600
 Ga        -1.6858057657       10.7061822045       11.8508369556
 Ga         6.7585929067        1.8990298293       11.8511438407
 Ga         5.0573704027        4.6429222452       11.8381036933
 Ga         3.1779925031        7.8980975975       11.8381068489
 Ga         1.6522584341       10.7432681065       11.8511407855
 Ga        10.1193853157        1.9492973069       11.8489795539
 Ga         8.4373112070        4.8616317746       11.8474652170
 Ga         6.9367728902        7.8980638442       11.8381049523
 Ga         5.0573549884       10.7157929673       11.8474802996
  O         0.0003002502       -0.0015252600        3.1546465549
  O        -1.6858234612        2.9199090495        3.1533184015
  O        -3.3727598767        5.8407623886        3.1546586844
  O        -5.0579825083        8.7591861904        3.1544288009
  O         3.3730460498       -0.0008264440        3.1567262533
  O         1.6872131303        2.9203765501        3.1546984157
  O         0.0011266082        5.8407445305        3.1545857907
  O        -1.6857585067        8.7612593110        3.1567301790
  O         6.7417140995       -0.0008230542        3.1567845516
  O         5.0573558006        2.9205827701        3.1544450249
  O         3.3724353146        5.8402094496        3.1573314228
  O         1.6864024667        8.7592223541        3.1544693394
  O        10.1143825034       -0.0015221556        3.1546445467
  O         8.4274506892        2.9203357827        3.1546636487
  O         6.7423391227        5.8402162069        3.1573721455
  O         5.0573450951        8.7586386115        3.1573485539
  O         1.6799822865        0.9766333354       11.8754931560
  O        -0.0003914958        3.8929795986       11.8749843069
  O        -1.6858019624        6.8062802117       11.8754755145
  O        -3.3655110383        9.7363406104       11.8740558520
  O         5.0573709909        0.9663245330       11.8740251959
  O         3.3397292609        3.8293643584       11.8737667933
  O         1.6146408585        6.8173035569       11.8737780745
  O        -0.0060853889        9.7363601250       11.8740414214
  O         8.4347031538        0.9766475268       11.8754443413
  O         6.7750589438        3.8293992110       11.8737479921
  O         3.3322766486        9.7924015814       11.8737869659
  O        11.8005119985        0.9736926454       11.8749460354
  O        10.1150939495        3.8929683406       11.8749832344
  O         8.5001176960        6.8172741392       11.8737738817
  O         6.7824656288        9.7923697992       11.8737959712
  O         0.0010724680        1.9458639281       20.5908454946
  O        -1.6858220352        4.8677252714       20.5909260510
  O        -3.3724780938        7.7859209991       20.5959763840
  O        -5.0581918668       10.7055829434       20.5959171393
  O         3.3716624693        1.9475190251       20.5958622972
  O         1.6858882689        4.8665480390       20.5955784913
  O         0.0009013163        7.7859171413       20.5959032389
  O        -1.6857378280       10.7061788163       20.5958814729
  O         6.7430967056        1.9475072223       20.5959114538
  O         5.0574099188        4.8669600391       20.5926888511
  O         3.3720611222        7.7861125935       20.5927019271
  O         1.6865567200       10.7056372174       20.5958962345
  O        10.1135626814        1.9459024586       20.5909225331
  O         8.4287975370        4.8665060082       20.5956502456
  O         6.7426769396        7.7860634301       20.5926714574
  O         5.0573550631       10.7060405950       20.5955720328
  O        -0.0050501759       -0.0011296348        7.7000360775
  O        -1.6857845467        2.9198561113        7.6967160178
  O        -3.3751342514        5.8358550005        7.7001060997
  O        -5.0952354963        8.7376960318        7.7326483399
  O         3.3720846660       -0.0003206368        7.6960046624
  O         1.6842476929        2.9249783548        7.7001982813
  O         0.0035556445        5.8358579702        7.7001672205
  O        -1.6858532286        8.7601397050        7.6959937276
  O         6.7426403957       -0.0002951346        7.6959670488
  O         5.0574062792        2.9636694054        7.7326362231
  O         3.3719319315        5.8400119706        7.7164013901
  O         1.7235772531        8.7376785877        7.7327291742
  O        10.1198506120       -0.0011608300        7.7001756595
  O         8.4305032293        2.9250599528        7.7001929678
  O         6.7427261399        5.8399184305        7.7163759000
  O         5.0573095651        8.7590642174        7.7164429044
  O         1.6852750910        0.9736168357       16.4252748252
  O         0.0035545506        3.8951881400       16.4179272539
  O        -1.6858047693        6.8123692564       16.4252796958
  O        -3.3713859312        9.7329333644       16.4279611847
  O         5.0573251365        0.9731147741       16.4279636634
  O         3.3871487751        3.9043880800       16.4058646916
  O         1.7033399091        6.8208973797       16.4058405677
  O        -0.0000845866        9.7329571940       16.4279025338
  O         8.4294777799        0.9736268983       16.4252340617
  O         6.7275851878        3.9044256679       16.4058824136
  O         5.0573515844        6.8130336460       16.4268690490
  O         3.3735981068        9.7137937281       16.4058286540
  O        11.8004147507        0.9692873050       16.4179104963
  O        10.1111433823        3.8951697676       16.4179266764
  O         8.4112345122        6.8209276045       16.4057923270
  O         6.7412596487        9.7138607234       16.4057948637
  O        -0.0001429270        1.9466062318       25.1486044711
  O        -1.6857771532        4.8662373684       25.1486031788
  O        -3.3716398708        7.7862037913       25.1487468362
  O        -5.0575576323       10.7060840918       25.1486799387
  O         3.3715321253        1.9467724997       25.1487064060
  O         1.6858360423        4.8664487608       25.1484348816
  O         0.0001296860        7.7861478843       25.1487490881
  O        -1.6857595492       10.7061147894       25.1484473700
  O         6.7431314279        1.9467989533       25.1486705490
  O         5.0573673278        4.8666949328       25.1491907753
  O         3.3716692645        7.7862330010       25.1491568587
  O         1.6859550955       10.7061716896       25.1486923567
  O        10.1148569016        1.9466205859       25.1485933791
  O         8.4289531789        4.8664219758       25.1484713583
  O         6.7430639014        7.7861923071       25.1491587841
  O         5.0573480550       10.7060912998       25.1485311670
  O        -0.0008625550       -0.0062933857       18.5866149887
  O        -1.6857916438        2.9198515032       18.5888702971
  O        -3.3774678006        5.8420859966       18.5866518299
  O        -5.0566585022        8.7599024296       18.5926999931
  O         3.3698416306        0.0009826340       18.5942684590
  O         1.6907860420        2.9237411881       18.5866910020
  O         0.0058476407        5.8421716833       18.5866543147
  O        -1.6857960687        8.7577068242       18.5942459769
  O         6.7447938285        0.0009233565       18.5941613920
  O         5.0573727778        2.9191148168       18.5927066407
  O         3.3700285796        5.8388477107       18.5924067914
  O         1.6851715670        8.7599609590       18.5926678402
  O        10.1155993118       -0.0063076633       18.5866031309
  O         8.4238679751        2.9237849813       18.5866913024
  O         6.7446645502        5.8388202803       18.5923470678
  O         5.0573255589        8.7613605909       18.5923185742
  O         1.6861587660        0.9731394092        1.1459233384
  O         0.0003281691        3.8933011469        1.1454526558
  O        -1.6858094229        6.8134167800        1.1459484468
  O        -3.3715981822        9.7328712841        1.1457075310
  O         5.0573178185        0.9732729073        1.1456521211
  O         3.3716844601        3.8938787231        1.1454801949
  O         1.6864492937        6.8127485873        1.1455701331
  O         0.0000134770        9.7328684003        1.1456854237
  O         8.4285450483        0.9730573220        1.1458644968
  O         6.7430351333        3.8939262109        1.1454998525
  O         5.0573668736        6.8129857843        1.1459580962
  O         3.3721125615        9.7323701202        1.1455279862
  O        11.8005526773        0.9729452349        1.1454097263
  O        10.1143427474        3.8933358205        1.1454261598
  O         8.4282703541        6.8127097417        1.1455420648
  O         6.7424725786        9.7323951752        1.1455483627
  O         0.0020551966        1.9453698167        9.8699491042
  O        -1.6858362865        4.8688441094        9.8699642680
  O        -3.3695108241        7.7909446389        9.8655830120
  O        -5.0522716377       10.7056829940        9.8655746501
  O         3.3746532855        1.9424740090        9.8655291743
  O         1.6937526922        4.8711149570        9.8776203182
  O        -0.0021352248        7.7910403648        9.8656635653
  O        -1.6858215917       10.7061923616        9.8687266797
  O         6.7400760058        1.9424783192        9.8655836826
  O         5.0572764467        4.9719588730        9.9750514921
  O         3.4628638046        7.7336548738        9.9750327053
  O         1.6805871405       10.7055981491        9.8656426128
  O        10.1126445978        1.9454014286        9.8699877814
  O         8.4209595684        4.8710501364        9.8775745489
  O         6.6518700626        7.7335885298        9.9750809645
  O         5.0573379054       10.6968625312        9.8775564850
  O        -0.0002447617        0.0007150076       22.5816298985
  O        -1.6857903382        2.9198401899       22.5789269829
  O        -3.3710948906        5.8391658529       22.5816677145
  O        -5.0582528207        8.7590344185       22.5835029094
  O         3.3713002339        0.0001697475       22.5824663845
  O         1.6850242485        2.9197325785       22.5816547956
  O        -0.0005097937        5.8391117185       22.5816544319
  O        -1.6857498595        8.7592735737       22.5824143852
  O         6.7433705572        0.0001386969       22.5824168886
  O         5.0573469064        2.9208725554       22.5835305675
  O         3.3720015809        5.8399526424       22.5838407050
  O         1.6866550272        8.7590932670       22.5835697016
  O        10.1150153361        0.0006033306       22.5816103728
  O         8.4296700241        2.9197757728       22.5816763712
  O         6.7427019915        5.8400683266       22.5837789326
  O         5.0573505316        8.7590949737       22.5837674029
  O         1.6849803963        0.9736468144        5.1382315780
  O         0.0002662724        3.8933477215        5.1367821752
  O        -1.6857709950        6.8120182038        5.1382098984
  O        -3.3773934761        9.7295459931        5.1436072476
  O         5.0573485144        0.9799565020        5.1435656130
  O         3.3732809120        3.8939651148        5.1431662925
  O         1.6873376505        6.8140223315        5.1431130325
  O         0.0057985943        9.7294848323        5.1436590308
  O         8.4297876122        0.9737674198        5.1382641828
  O         6.7414192720        3.8940000179        5.1431548584
  O         5.0573688614        6.8130152892        5.1481525017
  O         3.3714654632        9.7309751358        5.1431753782
  O        11.8005159856        0.9730308167        5.1367012155
  O        10.1143774171        3.8933611108        5.1367439991
  O         8.4273547906        6.8140657529        5.1432164692
  O         6.7432885592        9.7309725714        5.1432040188
  O         0.0023348126        1.9452700198       13.8521642899
  O        -1.6857779205        4.8691991245       13.8521852152
  O        -3.3725504351        7.7915951026       13.8634163289
  O        -5.0531941946       10.7026238220       13.8634166473
  O         3.3766864826        1.9447594052       13.8633837710
  O         1.6989269975        4.8740129357       13.8370142063
  O         0.0009585587        7.7916060213       13.8634172663
  O        -1.6858093472       10.7062567736       13.8575159298
  O         6.7380485858        1.9448014239       13.8634135362
  O         5.0573410311        4.9605456313       13.7223912409
  O         3.4529672217        7.7392173516       13.7224524165
  O         1.6816809622       10.7026764648       13.8634269965
  O        10.1123050907        1.9452350942       13.8522183876
  O         8.4158825302        4.8739974051       13.8371126073
  O         6.6617306582        7.7393152421       13.7223747283
  O         5.0573627646       10.6910347040       13.8370774759
