336
Zn48 In48 Ga48 O192
Zn 0.000000 0.000000 5.696984
Zn -1.685784 2.919864 5.696984
Zn -3.371568 5.839727 5.696984
Zn -5.057352 8.759591 5.696984
Zn 3.371568 0.000000 5.696984
Zn 1.685784 2.919864 5.696984
Zn 0.000000 5.839727 5.696984
Zn -1.685784 8.759591 5.696984
Zn 6.743136 0.000000 5.696984
Zn 5.057352 2.919864 5.696984
Zn 3.371568 5.839727 5.696984
Zn 1.685784 8.759591 5.696984
Zn 10.114704 0.000000 5.696984
Zn 8.428920 2.919864 5.696984
Zn 6.743136 5.839727 5.696984
Zn 5.057352 8.759591 5.696984
Zn 1.685784 0.973288 14.421741
Zn 0.000000 3.893151 14.421741
Zn -1.685784 6.813015 14.421741
Zn -3.371568 9.732879 14.421741
Zn 5.057352 0.973288 14.421741
Zn 3.371568 3.893151 14.421741
Zn 1.685784 6.813015 14.421741
Zn 0.000000 9.732879 14.421741
Zn 8.428920 0.973288 14.421741
Zn 6.743136 3.893151 14.421741
Zn 5.057352 6.813015 14.421741
Zn 3.371568 9.732879 14.421741
Zn 11.800488 0.973288 14.421741
Zn 10.114704 3.893151 14.421741
Zn 8.428920 6.813015 14.421741
Zn 6.743136 9.732879 14.421741
Zn -0.000000 1.946576 23.146498
Zn -1.685784 4.866439 23.146498
Zn -3.371568 7.786303 23.146498
Zn -5.057352 10.706167 23.146498
Zn 3.371568 1.946576 23.146498
Zn 1.685784 4.866439 23.146498
Zn 0.000000 7.786303 23.146498
Zn -1.685784 10.706167 23.146498
Zn 6.743136 1.946576 23.146498
Zn 5.057352 4.866439 23.146498
Zn 3.371568 7.786303 23.146498
Zn 1.685784 10.706167 23.146498
Zn 10.114704 1.946576 23.146498
Zn 8.428920 4.866439 23.146498
Zn 6.743136 7.786303 23.146498
Zn 5.057352 10.706167 23.146498
In 0.000000 0.000000 0.052414
In -1.685784 2.919864 0.052414
In -3.371568 5.839727 0.052414
In -5.057352 8.759591 0.052414
In 3.371568 0.000000 0.052414
In 1.685784 2.919864 0.052414
In 0.000000 5.839727 0.052414
In -1.685784 8.759591 0.052414
In 6.743136 0.000000 0.052414
In 5.057352 2.919864 0.052414
In 3.371568 5.839727 0.052414
In 1.685784 8.759591 0.052414
In 10.114704 0.000000 0.052414
In 8.428920 2.919864 0.052414
In 6.743136 5.839727 0.052414
In 5.057352 8.759591 0.052414
In 1.685784 0.973288 8.777170
In 0.000000 3.893151 8.777170
In -1.685784 6.813015 8.777170
In -3.371568 9.732879 8.777170
In 5.057352 0.973288 8.777170
In 3.371568 3.893151 8.777170
In 1.685784 6.813015 8.777170
In 0.000000 9.732879 8.777170
In 8.428920 0.973288 8.777170
In 6.743136 3.893151 8.777170
In 5.057352 6.813015 8.777170
In 3.371568 9.732879 8.777170
In 11.800488 0.973288 8.777170
In 10.114704 3.893151 8.777170
In 8.428920 6.813015 8.777170
In 6.743136 9.732879 8.777170
In -0.000000 1.946576 17.501927
In -1.685784 4.866439 17.501927
In -3.371568 7.786303 17.501927
In -5.057352 10.706167 17.501927
In 3.371568 1.946576 17.501927
In 1.685784 4.866439 17.501927
In 0.000000 7.786303 17.501927
In -1.685784 10.706167 17.501927
In 6.743136 1.946576 17.501927
In 5.057352 4.866439 17.501927
In 3.371568 7.786303 17.501927
In 1.685784 10.706167 17.501927
In 10.114704 1.946576 17.501927
In 8.428920 4.866439 17.501927
In 6.743136 7.786303 17.501927
In 5.057352 10.706167 17.501927
Ga 0.000000 0.000000 20.575779
Ga -1.685784 2.919864 20.575779
Ga -3.371568 5.839727 20.575779
Ga -5.057352 8.759591 20.575779
Ga 3.371568 0.000000 20.575779
Ga 1.685784 2.919864 20.575779
Ga 0.000000 5.839727 20.575779
Ga -1.685784 8.759591 20.575779
Ga 6.743136 0.000000 20.575779
Ga 5.057352 2.919864 20.575779
Ga 3.371568 5.839727 20.575779
Ga 1.685784 8.759591 20.575779
Ga 10.114704 0.000000 20.575779
Ga 8.428920 2.919864 20.575779
Ga 6.743136 5.839727 20.575779
Ga 5.057352 8.759591 20.575779
Ga 1.685784 0.973288 3.126265
Ga 0.000000 3.893151 3.126265
Ga -1.685784 6.813015 3.126265
Ga -3.371568 9.732879 3.126265
Ga 5.057352 0.973288 3.126265
Ga 3.371568 3.893151 3.126265
Ga 1.685784 6.813015 3.126265
Ga 0.000000 9.732879 3.126265
Ga 8.428920 0.973288 3.126265
Ga 6.743136 3.893151 3.126265
Ga 5.057352 6.813015 3.126265
Ga 3.371568 9.732879 3.126265
Ga 11.800488 0.973288 3.126265
Ga 10.114704 3.893151 3.126265
Ga 8.428920 6.813015 3.126265
Ga 6.743136 9.732879 3.126265
Ga -0.000000 1.946576 11.851022
Ga -1.685784 4.866439 11.851022
Ga -3.371568 7.786303 11.851022
Ga -5.057352 10.706167 11.851022
Ga 3.371568 1.946576 11.851022
Ga 1.685784 4.866439 11.851022
Ga 0.000000 7.786303 11.851022
Ga -1.685784 10.706167 11.851022
Ga 6.743136 1.946576 11.851022
Ga 5.057352 4.866439 11.851022
Ga 3.371568 7.786303 11.851022
Ga 1.685784 10.706167 11.851022
Ga 10.114704 1.946576 11.851022
Ga 8.428920 4.866439 11.851022
Ga 6.743136 7.786303 11.851022
Ga 5.057352 10.706167 11.851022
O 0.000000 0.000000 3.149139
O -1.685784 2.919864 3.149139
O -3.371568 5.839727 3.149139
O -5.057352 8.759591 3.149139
O 3.371568 0.000000 3.149139
O 1.685784 2.919864 3.149139
O 0.000000 5.839727 3.149139
O -1.685784 8.759591 3.149139
O 6.743136 0.000000 3.149139
O 5.057352 2.919864 3.149139
O 3.371568 5.839727 3.149139
O 1.685784 8.759591 3.149139
O 10.114704 0.000000 3.149139
O 8.428920 2.919864 3.149139
O 6.743136 5.839727 3.149139
O 5.057352 8.759591 3.149139
O 1.685784 0.973288 11.873896
O 0.000000 3.893151 11.873896
O -1.685784 6.813015 11.873896
O -3.371568 9.732879 11.873896
O 5.057352 0.973288 11.873896
O 3.371568 3.893151 11.873896
O 1.685784 6.813015 11.873896
O 0.000000 9.732879 11.873896
O 8.428920 0.973288 11.873896
O 6.743136 3.893151 11.873896
O 5.057352 6.813015 11.873896
O 3.371568 9.732879 11.873896
O 11.800488 0.973288 11.873896
O 10.114704 3.893151 11.873896
O 8.428920 6.813015 11.873896
O 6.743136 9.732879 11.873896
O -0.000000 1.946576 20.598652
O -1.685784 4.866439 20.598652
O -3.371568 7.786303 20.598652
O -5.057352 10.706167 20.598652
O 3.371568 1.946576 20.598652
O 1.685784 4.866439 20.598652
O 0.000000 7.786303 20.598652
O -1.685784 10.706167 20.598652
O 6.743136 1.946576 20.598652
O 5.057352 4.866439 20.598652
O 3.371568 7.786303 20.598652
O 1.685784 10.706167 20.598652
O 10.114704 1.946576 20.598652
O 8.428920 4.866439 20.598652
O 6.743136 7.786303 20.598652
O 5.057352 10.706167 20.598652
O 0.000000 0.000000 7.699223
O -1.685784 2.919864 7.699223
O -3.371568 5.839727 7.699223
O -5.057352 8.759591 7.699223
O 3.371568 0.000000 7.699223
O 1.685784 2.919864 7.699223
O 0.000000 5.839727 7.699223
O -1.685784 8.759591 7.699223
O 6.743136 0.000000 7.699223
O 5.057352 2.919864 7.699223
O 3.371568 5.839727 7.699223
O 1.685784 8.759591 7.699223
O 10.114704 0.000000 7.699223
O 8.428920 2.919864 7.699223
O 6.743136 5.839727 7.699223
O 5.057352 8.759591 7.699223
O 1.685784 0.973288 16.423980
O 0.000000 3.893151 16.423980
O -1.685784 6.813015 16.423980
O -3.371568 9.732879 16.423980
O 5.057352 0.973288 16.423980
O 3.371568 3.893151 16.423980
O 1.685784 6.813015 16.423980
O 0.000000 9.732879 16.423980
O 8.428920 0.973288 16.423980
O 6.743136 3.893151 16.423980
O 5.057352 6.813015 16.423980
O 3.371568 9.732879 16.423980
O 11.800488 0.973288 16.423980
O 10.114704 3.893151 16.423980
O 8.428920 6.813015 16.423980
O 6.743136 9.732879 16.423980
O -0.000000 1.946576 25.148737
O -1.685784 4.866439 25.148737
O -3.371568 7.786303 25.148737
O -5.057352 10.706167 25.148737
O 3.371568 1.946576 25.148737
O 1.685784 4.866439 25.148737
O 0.000000 7.786303 25.148737
O -1.685784 10.706167 25.148737
O 6.743136 1.946576 25.148737
O 5.057352 4.866439 25.148737
O 3.371568 7.786303 25.148737
O 1.685784 10.706167 25.148737
O 10.114704 1.946576 25.148737
O 8.428920 4.866439 25.148737
O 6.743136 7.786303 25.148737
O 5.057352 10.706167 25.148737
O 0.000000 0.000000 18.593611
O -1.685784 2.919864 18.593611
O -3.371568 5.839727 18.593611
O -5.057352 8.759591 18.593611
O 3.371568 0.000000 18.593611
O 1.685784 2.919864 18.593611
O 0.000000 5.839727 18.593611
O -1.685784 8.759591 18.593611
O 6.743136 0.000000 18.593611
O 5.057352 2.919864 18.593611
O 3.371568 5.839727 18.593611
O 1.685784 8.759591 18.593611
O 10.114704 0.000000 18.593611
O 8.428920 2.919864 18.593611
O 6.743136 5.839727 18.593611
O 5.057352 8.759591 18.593611
O 1.685784 0.973288 1.144098
O 0.000000 3.893151 1.144098
O -1.685784 6.813015 1.144098
O -3.371568 9.732879 1.144098
O 5.057352 0.973288 1.144098
O 3.371568 3.893151 1.144098
O 1.685784 6.813015 1.144098
O 0.000000 9.732879 1.144098
O 8.428920 0.973288 1.144098
O 6.743136 3.893151 1.144098
O 5.057352 6.813015 1.144098
O 3.371568 9.732879 1.144098
O 11.800488 0.973288 1.144098
O 10.114704 3.893151 1.144098
O 8.428920 6.813015 1.144098
O 6.743136 9.732879 1.144098
O -0.000000 1.946576 9.868854
O -1.685784 4.866439 9.868854
O -3.371568 7.786303 9.868854
O -5.057352 10.706167 9.868854
O 3.371568 1.946576 9.868854
O 1.685784 4.866439 9.868854
O 0.000000 7.786303 9.868854
O -1.685784 10.706167 9.868854
O 6.743136 1.946576 9.868854
O 5.057352 4.866439 9.868854
O 3.371568 7.786303 9.868854
O 1.685784 10.706167 9.868854
O 10.114704 1.946576 9.868854
O 8.428920 4.866439 9.868854
O 6.743136 7.786303 9.868854
O 5.057352 10.706167 9.868854
O 0.000000 0.000000 22.583264
O -1.685784 2.919864 22.583264
O -3.371568 5.839727 22.583264
O -5.057352 8.759591 22.583264
O 3.371568 0.000000 22.583264
O 1.685784 2.919864 22.583264
O 0.000000 5.839727 22.583264
O -1.685784 8.759591 22.583264
O 6.743136 0.000000 22.583264
O 5.057352 2.919864 22.583264
O 3.371568 5.839727 22.583264
O 1.685784 8.759591 22.583264
O 10.114704 0.000000 22.583264
O 8.428920 2.919864 22.583264
O 6.743136 5.839727 22.583264
O 5.057352 8.759591 22.583264
O 1.685784 0.973288 5.133751
O 0.000000 3.893151 5.133751
O -1.685784 6.813015 5.133751
O -3.371568 9.732879 5.133751
O 5.057352 0.973288 5.133751
O 3.371568 3.893151 5.133751
O 1.685784 6.813015 5.133751
O 0.000000 9.732879 5.133751
O 8.428920 0.973288 5.133751
O 6.743136 3.893151 5.133751
O 5.057352 6.813015 5.133751
O 3.371568 9.732879 5.133751
O 11.800488 0.973288 5.133751
O 10.114704 3.893151 5.133751
O 8.428920 6.813015 5.133751
O 6.743136 9.732879 5.133751
O -0.000000 1.946576 13.858508
O -1.685784 4.866439 13.858508
O -3.371568 7.786303 13.858508
O -5.057352 10.706167 13.858508
O 3.371568 1.946576 13.858508
O 1.685784 4.866439 13.858508
O 0.000000 7.786303 13.858508
O -1.685784 10.706167 13.858508
O 6.743136 1.946576 13.858508
O 5.057352 4.866439 13.858508
O 3.371568 7.786303 13.858508
O 1.685784 10.706167 13.858508
O 10.114704 1.946576 13.858508
O 8.428920 4.866439 13.858508
O 6.743136 7.786303 13.858508
O 5.057352 10.706167 13.858508