     188
 i =        1, E =     -6889.1403072539
 Zn        -0.0001346725        0.0000777821        5.6927413773
 Zn        -1.6857839967        2.9197082018        5.6927413508
 Zn        -3.3716208415        5.8396967011        5.6974892715
 Zn         3.3715681093        0.0000610414        5.6974892698
 Zn         1.6857042779        2.9198176834        5.6981132389
 Zn         0.0000529398        5.8396967094        5.6974892242
 Zn         6.7432708727        0.0000777928        5.6927413369
 Zn         5.0574319209        2.9198177045        5.6981132039
 Zn         3.3715681136        5.8398193729        5.6981132314
 Zn         1.6866614416        0.9745971685       14.4212992510
 Zn         0.0015723996        3.8932567136       14.4212991540
 Zn        -1.6857841787        6.8130151457       14.4247018543
 Zn         5.0564743288        0.9745971565       14.4212992401
 Zn         3.3715678935        3.8931513980       14.4509153083
 Zn         1.6864789651        6.8116006115       14.4212991539
 Zn         8.4289199512        0.9732879845       14.4226273552
 Zn         6.7415633226        3.8932567663       14.4212991423
 Zn         5.0566568835        6.8116005623       14.4212991881
 Zn         0.0000157851        1.9465847027       23.1467504020
 Zn        -1.6857837691        4.8663702257       23.1467147374
 Zn        -3.3716273281        7.7863372598       23.1467147686
 Zn         3.3715682627        1.9466625838       23.1467559827
 Zn         1.6858594977        4.8663956350       23.1467559818
 Zn         0.0000598575        7.7863373062       23.1467147790
 Zn         6.7431207393        1.9465847128       23.1467503747
 Zn         5.0572770756        4.8663956354       23.1467559666
 Zn         3.3715683075        7.7862849722       23.1467503793
 In        -0.0001360604        0.0000785833        0.0528268543
 In        -1.6857840670        2.9197064956        0.0528267351
 In        -3.3716110401        5.8397023900        0.0527682445
 In         3.3715680448        0.0000496962        0.0527681783
 In         1.6856856897        2.9198067963        0.0526054249
 In         0.0000429770        5.8397024364        0.0527682452
 In         6.7432721002        0.0000785940        0.0528267683
 In         5.0574504023        2.9198068095        0.0526054048
 In         3.3715680530        5.8398408064        0.0526055686
 In         1.6805299611        0.9703411564        8.7665455984
 In        -0.0051786882        3.8900742809        8.7665457016
 In        -1.6857839065        6.8130148217        8.7687938891
 In         5.0626063745        0.9703411978        8.7665456152
 In         3.3715681705        3.8931513529        8.7274843095
 In         1.6858595505        6.8190383614        8.7665456845
 In         8.4289202416        0.9732876885        8.7736953979
 In         6.7483150292        3.8900743278        8.7665457261
 In         5.0572768475        6.8190383327        8.7665456450
 In        -0.0005233330        1.9462737923       17.5099772272
 In        -1.6857841998        4.8671257250       17.5092387571
 In        -3.3709737862        7.7859597706       17.5092387509
 In         3.3715678634        1.9457613316       17.5124298499
 In         1.6850784844        4.8668466305       17.5124299027
 In        -0.0005945672        7.7859598163       17.5092387073
 In         6.7436590602        1.9462738206       17.5099772327
 In         5.0580572992        4.8668466567       17.5124298905
 In         3.3715679114        7.7869070731       17.5099772115
 Ga        -0.0000158558        0.0000090659       20.5762360968
 Ga        -1.6857842380        2.9198457846       20.5762361031
 Ga        -3.3715571420        5.8397337190       20.5763762826
 Ga         3.3715678018       -0.0000128153       20.5763763076
 Ga         1.6859086209        2.9199358436       20.5761031862
 Ga        -0.0000113808        5.8397337004       20.5763762746
 Ga         6.7431514819        0.0000090751       20.5762361095
 Ga         5.0572270775        2.9199358605       20.5761032031
 Ga         3.3715678407        5.8395831552       20.5761031605
 Ga         1.6857224042        0.9733496545        3.1250992618
 Ga         0.0000226069        3.8930675083        3.1250992372
 Ga        -1.6857843134        6.8130151139        3.1248446849
 Ga         5.0574131934        0.9733496620        3.1250992693
 Ga         3.3715678237        3.8931515641        3.1251893561
 Ga         1.6858679810        6.8130373410        3.1250992516
 Ga         8.4289199006        0.9732878471        3.1252871904
 Ga         6.7431130331        3.8930675188        3.1250992463
 Ga         5.0572676253        6.8130373627        3.1250992224
 Ga        -0.0003714159        1.9463628468       11.8494479238
 Ga        -1.6857839563        4.8704907765       11.8506158157
 Ga        -3.3680595214        7.7842772025       11.8506157518
 Ga         3.3715642314        1.9286092942       11.8528818960
 Ga         1.6702342114        4.8754169931       11.8528820327
 Ga        -0.0035087245        7.7842770657       11.8506157807
 Ga         6.7435062615        1.9463620564       11.8494479304
 Ga         5.0729096276        4.8754258266       11.8528819214
 Ga         3.3715667338        7.7867309799       11.8494479137
  O        -0.0000519219        0.0000298647        3.1545614518
  O        -1.6857840031        2.9198037631        3.1545614914
  O        -3.3717319946        5.8396325781        3.1542193998
  O         3.3715680270        0.0001892073        3.1542193617
  O         1.6858827751        2.9199207846        3.1541560304
  O         0.0001639009        5.8396326140        3.1542193883
  O         6.7431880245        0.0000298896        3.1545615210
  O         5.0572533238        2.9199207964        3.1541560318
  O         3.3715680467        5.8396132427        3.1541560757
  O         1.6838994963        0.9696758692       11.8783524705
  O        -0.0040670350        3.8933279985       11.8783523733
  O        -1.6857841192        6.8130151308       11.8769890753
  O         5.0592337097        0.9696765065       11.8783523828
  O         1.6835973213        6.8164488831       11.8783523909
  O         8.4289200317        0.9732878605       11.8774365835
  O         6.7472044202        3.8933272532       11.8783523746
  O         5.0595378199        6.8164531375       11.8783525297
  O         0.0001555362        1.9466655967       20.5974452722
  O        -1.6857840420        4.8664491919       20.5976537968
  O        -3.3715592695        7.7862979517       20.5976538364
  O         3.3715680736        1.9465604270       20.5974427440
  O         1.6857707136        4.8664467600       20.5974426963
  O        -0.0000087355        7.7862979586       20.5976538300
  O         6.7429805550        1.9466655912       20.5974453038
  O         5.0573653751        4.8664467435       20.5974426928
  O         3.3715680390        7.7861233916       20.5974452480
  O        -0.0053164679        0.0030694181        7.6959058973
  O        -1.6857839122        2.9137243529        7.6959059094
  O        -3.3765071929        5.8368753829        7.7031220148
  O         3.3715682164        0.0057032584        7.7031220372
  O         1.6883022013        2.9213172458        7.7034190443
  O         0.0049394491        5.8368754093        7.7031219909
  O         6.7484528623        0.0030694265        7.6959058639
  O         5.0548342101        2.9213172567        7.7034190263
  O         3.3715681948        5.8368195257        7.7034189863
  O         1.6881091460        0.9754253339       16.4201112986
  O         0.0030137344        3.8940961028       16.4201112490
  O        -1.6857839806        6.8130149839       16.4240369832
  O         5.0550270143        0.9754253719       16.4201113009
  O         3.3715681022        3.8931512899       16.4321853825
  O         1.6864726702        6.8099326625       16.4201111954
  O         8.4289201585        0.9732878548       16.4221490060
  O         6.7401224574        3.8940961272       16.4201112449
  O         5.0566635249        6.8099326708       16.4201112137
  O        -0.0000034053        1.9465736385       25.1484242781
  O        -1.6857839290        4.8665121041       25.1484642148
  O        -3.3715048794        7.7862663508       25.1484641739
  O         3.3715681327        1.9465246645       25.1484727837
  O         1.6857399697        4.8664647207       25.1484729351
  O        -0.0000630313        7.7862663466       25.1484641584
  O         6.7431396885        1.9465736635       25.1484242302
  O         5.0573963304        4.8664647545       25.1484729147
  O         3.3715681579        7.7863068280       25.1484243173
  O         0.0009695408       -0.0005597767       18.5934688069
  O        -1.6857842049        2.9209834716       18.5934687615
  O        -3.3728071128        5.8390119503       18.5937768834
  O         3.3715679087        0.0014306588       18.5937768464
  O         1.6863861491        2.9202115009       18.5930962345
  O         0.0012387359        5.8390119618       18.5937768485
  O         6.7421662734       -0.0005597605       18.5934688127
  O         5.0567495727        2.9202115323       18.5930962464
  O         3.3715678833        5.8390317695       18.5930963061
  O         1.6857641496        0.9732516804        1.1443275982
  O        -0.0000413807        3.8931524596        1.1443274481
  O        -1.6857841298        6.8130150956        1.1441180475
  O         5.0573717721        0.9732517001        1.1443276214
  O         3.3715679552        3.8931515062        1.1441121865
  O         1.6857624544        6.8130503566        1.1443275303
  O         8.4289200124        0.9732879225        1.1448109089
  O         6.7431772742        3.8931524820        1.1443274792
  O         5.0573734981        6.8130503199        1.1443274941
  O         0.0027418288        1.9481587212        9.8707812298
  O        -1.6857840525        4.8661192269        9.8707240971
  O        -3.3718453184        7.7864630452        9.8707239395
  O         3.3715679219        1.9922228976        9.8846152995
  O         1.7253155411        4.8436157601        9.8846155917
  O         0.0002771340        7.7864630518        9.8707239336
  O         6.7403941256        1.9481587973        9.8707811927
  O         5.0178204372        4.8436158301        9.8846154899
  O         3.3715680555        7.7831369850        9.8707813051
  O        -0.0000686539        0.0000396525       22.5813163152
  O        -1.6857838597        2.9197842416       22.5813164085
  O        -3.3716016389        5.8397075428       22.5814596645
  O         3.3715681933        0.0000389043       22.5814597385
  O         1.6857524129        2.9198454371       22.5811992331
  O         0.0000339260        5.8397075636       22.5814596887
  O         6.7432050727        0.0000396629       22.5813163450
  O         5.0573839269        2.9198454436       22.5811992508
  O         3.3715681934        5.8397637358       22.5811990947
  O         1.6859979501        0.9739425801        5.1334617180
  O         0.0006739880        3.8930090994        5.1334618404
  O        -1.6857840004        6.8130150447        5.1330751877
  O         5.0571381655        0.9739426017        5.1334617108
  O         3.3715680548        3.8931512354        5.1344084806
  O         1.6862441232        6.8125024292        5.1334617440
  O         8.4289201124        0.9732878728        5.1329575660
  O         6.7424620938        3.8930091426        5.1334618138
  O         5.0568920073        6.8125024354        5.1334617011
  O         0.0015791626        1.9474877143       13.8532722249
  O        -1.6857841106        4.8658659159       13.8558422153
  O        -3.3720646844        7.7865896775       13.8558422207
  O         3.3715678841        1.9725915440       13.8452155696
  O         1.7083140235        4.8534314819       13.8452155309
  O         0.0004964332        7.7865896351       13.8558422756
  O         6.7415566922        1.9474877464       13.8532722582
  O         5.0348217733        4.8534315178       13.8452154501
  O         3.3715679794        7.7844794767       13.8532721234
     188
 i =        2, E =     -6889.1445052670
 Zn        -0.0007126270        0.0004115223        5.6863546713
 Zn        -1.6857839480        2.9190406557        5.6863545687
 Zn        -3.3721326874        5.8394014132        5.6925343314
 Zn         3.3715681633        0.0006520698        5.6925342637
 Zn         1.6845256863        2.9191368895        5.6846687827
 Zn         0.0005649334        5.8394013206        5.6925342141
 Zn         6.7438490532        0.0004114701        5.6863544924
 Zn         5.0586107481        2.9191370046        5.6846687309
 Zn         3.3715683107        5.8411806048        5.6846688036
 Zn         1.6855175097        0.9759527714       14.4241615831
 Zn         0.0021740804        3.8915888707       14.4241609943
 Zn        -1.6857843541        6.8130152820       14.4340825701
 Zn         5.0576173083        0.9759526790       14.4241609071
 Zn         3.3715666685        3.8931523861       14.4957112238
 Zn         1.6882244948        6.8119136944       14.4241610360
 Zn         8.4289197855        0.9732880906       14.4266665834
 Zn         6.7409608750        3.8915894188       14.4241608892
 Zn         5.0549109492        6.8119135427       14.4241616203
 Zn         0.0001486253        1.9466609161       23.1470122445
 Zn        -1.6857834534        4.8664832478       23.1470314691
 Zn        -3.3715291858        7.7862805200       23.1470315390
 Zn         3.3715685928        1.9466819690       23.1469574153
 Zn         1.6858769144        4.8663858664       23.1469573937
 Zn        -0.0000376338        7.7862805757       23.1470315470
 Zn         6.7429886286        1.9466609245       23.1470121807
 Zn         5.0572604040        4.8663858824       23.1469573622
 Zn         3.3715687098        7.7861317373       23.1470121659
 In         0.0000838582       -0.0000484683        0.0513873534
 In        -1.6857840594        2.9199603461        0.0513872588
 In        -3.3716597070        5.8396743290        0.0512200262
 In         3.3715680874        0.0001057466        0.0512200587
 In         1.6858945407        2.9199273164        0.0512966292
 In         0.0000916092        5.8396743655        0.0512200709
 In         6.7430523155       -0.0000484984        0.0513872142
 In         5.0572416375        2.9199273165        0.0512966086
 In         3.3715680908        5.8395996877        0.0512966632
 In         1.6790570337        0.9738498106        8.7698130481
 In        -0.0028758343        3.8870444438        8.7698138747
 In        -1.6857831670        6.8130145264        8.7684752409
 In         5.0640791192        0.9738495840        8.7698136353
 In         3.3715678266        3.8931516756        8.6838280774
 In         1.6896349249        6.8185590814        8.7698139561
 In         8.4289204194        0.9732876424        8.7779255021
 In         6.7460130596        3.8870447961        8.7698136720
 In         5.0535018441        6.8185596476        8.7698130742
 In        -0.0001211985        1.9465060090       17.5093742361
 In        -1.6857844037        4.8673041906       17.5082663202
 In        -3.3708194745        7.7858706619       17.5082665583
 In         3.3715674645        1.9426710929       17.5206167083
 In         1.6824021007        4.8683919570       17.5206165313
 In        -0.0007491376        7.7858707912       17.5082662740
 In         6.7432563427        1.9465062147       17.5093740656
 In         5.0607332353        4.8683921768       17.5206167130
 In         3.3715677711        7.7864426241       17.5093741877
 Ga         0.0003285096       -0.0001897479       20.5793206918
 Ga        -1.6857843941        2.9202433801       20.5793207624
 Ga        -3.3717063936        5.8396477332       20.5801853615
 Ga         3.3715677282        0.0001594198       20.5801853290
 Ga         1.6857093873        2.9198206415       20.5801570591
 Ga         0.0001376488        5.8396477081       20.5801853858
 Ga         6.7428069572       -0.0001897175       20.5793207513
 Ga         5.0574259991        2.9198208231       20.5801571183
 Ga         3.3715678218        5.8398132596       20.5801570635
 Ga         1.6861801644        0.9736515989        3.1260610470
 Ga         0.0005129227        3.8933134290        3.1260610287
 Ga        -1.6857844434        6.8130152346        3.1265699015
 Ga         5.0569551122        0.9736515083        3.1260610063
 Ga         3.3715677421        3.8931517748        3.1268831416
 Ga         1.6859002969        6.8124898726        3.1260610921
 Ga         8.4289198007        0.9732879377        3.1250147530
 Ga         6.7426226416        3.8933134837        3.1260610175
 Ga         5.0572350637        6.8124900084        3.1260610725
 Ga         0.0007532783        1.9470041368       11.8473820280
 Ga        -1.6857873298        4.8716960779       11.8492323485
 Ga        -3.3670188959        7.7836764269       11.8492326809
 Ga         3.3715913024        1.9129222221       11.8440462283
 Ga         1.6565811966        4.8832997212       11.8440450286
 Ga        -0.0045541511        7.7836774105       11.8492323710
 Ga         6.7423869587        1.9470081182       11.8473819825
 Ga         5.0865085385        4.8832460125       11.8440462106
 Ga         3.3715736103        7.7854361773       11.8473820336
  O         0.0003536206       -0.0002042323        3.1544349331
  O        -1.6857838079        2.9202716376        3.1544350919
  O        -3.3715989648        5.8397093124        3.1541770301
  O         3.3715681544        0.0000356710        3.1541769718
  O         1.6862231584        2.9201168992        3.1541480036
  O         0.0000311665        5.8397092746        3.1541770347
  O         6.7427828205       -0.0002042903        3.1544350836
  O         5.0569134155        2.9201168958        3.1541480074
  O         3.3715682688        5.8392203645        3.1541480207
  O         1.6862481492        0.9659970108       11.8783574218
  O        -0.0061116375        3.8971805755       11.8783581547
  O        -1.6857838565        6.8130149571       11.8732314561
  O         5.0569121975        0.9659851385       11.8783582041
  O         1.6792387653        6.8162934328       11.8783582268
  O         8.4289204249        0.9732876197       11.8732061755
  O         6.7492405492        3.8971836586       11.8783580500
  O         5.0638982125        6.8162586314       11.8783574039
  O        -0.0001050781        1.9465147764       20.5950021236
  O        -1.6857838615        4.8667968306       20.5957657371
  O        -3.3712581083        7.7861239733       20.5957657732
  O         3.3715682669        1.9467472103       20.5956543593
  O         1.6859329849        4.8663532735       20.5956542281
  O        -0.0003095434        7.7861239910       20.5957657945
  O         6.7432414979        1.9465148625       20.5950021829
  O         5.0572036469        4.8663533420       20.5956542367
  O         3.3715682815        7.7864243698       20.5950020717
  O        -0.0023428331        0.0013524973        7.6951348423
  O        -1.6857826800        2.9171588643        7.6951349445
  O        -3.3839715709        5.8325671018        7.7060074524
  O         3.3715671181        0.0143216839        7.7060073724
  O         1.6800140577        2.9165310838        7.6928461556
  O         0.0124056308        5.8325647774        7.7060073013
  O         6.7454791410        0.0013509174        7.6951348406
  O         5.0631222287        2.9165320638        7.6928464087
  O         3.3715689461        5.8463903376        7.6928461707
  O         1.6912179831        0.9769668090       16.4181913270
  O         0.0059043272        3.8960170971       16.4181910376
  O        -1.6857840736        6.8130150260       16.4285494486
  O         5.0519172474        0.9769681198       16.4181909324
  O         3.3715682135        3.8931515325       16.4469301899
  O         1.6862546455        6.8064689913       16.4181910243
  O         8.4289201920        0.9732878062       16.4229593884
  O         6.7372314679        3.8960182216       16.4181909738
  O         5.0568829143        6.8064695417       16.4181913700
  O        -0.0001616016        1.9464819891       25.1478771926
  O        -1.6857838478        4.8663075058       25.1478733275
  O        -3.3716820655        7.7863686785       25.1478733584
  O         3.3715683027        1.9465732132       25.1476999717
  O         1.6857823500        4.8664404330       25.1477000075
  O         0.0001143338        7.7863686872       25.1478733357
  O         6.7432981637        1.9464820059       25.1478771296
  O         5.0573542239        4.8664404262       25.1476999848
  O         3.3715682900        7.7864896009       25.1478771573
  O         0.0016582295       -0.0009574391       18.5942771901
  O        -1.6857846375        2.9217783775       18.5942772161
  O        -3.3710053047        5.8400530852       18.5965337365
  O         3.3715674073       -0.0006502684       18.5965336249
  O         1.6850214314        2.9194233015       18.5960725014
  O        -0.0005631583        5.8400524463       18.5965337311
  O         6.7414775364       -0.0009570251       18.5942772487
  O         5.0581140090        2.9194235597       18.5960725389
  O         3.3715679408        5.8406078000       18.5960725999
  O         1.6855644627        0.9732594305        1.1470879121
  O        -0.0001346069        3.8929759232        1.1470878342
  O        -1.6857842115        6.8130152054        1.1472443547
  O         5.0575714973        0.9732594256        1.1470878875
  O         3.3715679633        3.8931517456        1.1473707772
  O         1.6858689201        6.8132195384        1.1470879360
  O         8.4289200267        0.9732879405        1.1466312524
  O         6.7432704700        3.8929759260        1.1470878328
  O         5.0572669774        6.8132194598        1.1470878930
  O         0.0044008796        1.9491164087        9.8721183506
  O        -1.6857836272        4.8646195828        9.8685086158
  O        -3.3731448572        7.7872131363        9.8685089060
  O         3.3715668399        2.0363645857        9.9052674944
  O         1.7635416910        4.8215460787        9.9052659228
  O         0.0015762809        7.7872124676        9.8685085480
  O         6.7387352471        1.9491164235        9.8721183546
  O         4.9795920634        4.8215460738        9.9052675784
  O         3.3715680705        7.7812211303        9.8721184086
  O        -0.0000626439        0.0000362030       22.5807412212
  O        -1.6857836738        2.9197906323       22.5807414228
  O        -3.3716762363        5.8396643895       22.5811105259
  O         3.3715684295        0.0001251069       22.5811106596
  O         1.6858543982        2.9199039135       22.5809241857
  O         0.0001088756        5.8396644076       22.5811105876
  O         6.7431995460        0.0000361918       22.5807413216
  O         5.0572823706        2.9199039119       22.5809242586
  O         3.3715684187        5.8396462252       22.5809239393
  O         1.6860804691        0.9731451197        5.1356508680
  O         0.0000249031        3.8934794952        5.1356510425
  O        -1.6857839907        6.8130150370        5.1373553276
  O         5.0570556006        0.9731452026        5.1356508441
  O         3.3715680865        3.8931515761        5.1384821983
  O         1.6855125039        6.8128295132        5.1356509878
  O         8.4289202851        0.9732878021        5.1329074812
  O         6.7431113525        3.8934797093        5.1356510153
  O         5.0576238673        6.8128297082        5.1356509369
  O         0.0031256617        1.9483805569       13.8452872889
  O        -1.6857841946        4.8668964393       13.8530822786
  O        -3.3711728272        7.7860747081       13.8530822639
  O         3.3715674168        2.0086953218       13.8108580960
  O         1.7395784227        4.8353811997       13.8108581557
  O        -0.0003958682        7.7860744692       13.8530824241
  O         6.7400096574        1.9483807906       13.8452873664
  O         5.0035546295        4.8353802038       13.8108579020
  O         3.3715679000        7.7826936367       13.8452872061
     188
 i =        3, E =     -6889.1461530335
 Zn        -0.0012240290        0.0007068486        5.6883734123
 Zn        -1.6857838168        2.9184502272        5.6883739400
 Zn        -3.3729840672        5.8389097059        5.6930676778
 Zn         3.3715682959        0.0016352520        5.6930676063
 Zn         1.6815793219        2.9174360983        5.6760199347
 Zn         0.0014166239        5.8389095527        5.6930676684
 Zn         6.7443604427        0.0007066451        5.6883738967
 Zn         5.0615573207        2.9174358034        5.6760190305
 Zn         3.3715681320        5.8445825890        5.6760199577
 Zn         1.6826788404        0.9759512037       14.4226810712
 Zn         0.0007516505        3.8891294252       14.4226844989
 Zn        -1.6857860020        6.8130162334       14.4372027923
 Zn         5.0604586752        0.9759497645       14.4226843480
 Zn         3.3715661267        3.8931528315       14.5219693327
 Zn         1.6896433147        6.8143752956       14.4226844946
 Zn         8.4289197339        0.9732881864       14.4250679175
 Zn         6.7423842173        3.8891303276       14.4226844615
 Zn         5.0534930694        6.8143727083       14.4226811270
 Zn        -0.0000898658        1.9465230038       23.1479396776
 Zn        -1.6857832999        4.8664449272       23.1479506136
 Zn        -3.3715622000        7.7862995651       23.1479505908
 Zn         3.3715687720        1.9466589014       23.1481776369
 Zn         1.6858572585        4.8663972856       23.1481775981
 Zn        -0.0000043173        7.7862996266       23.1479506436
 Zn         6.7432274591        1.9465230657       23.1479395845
 Zn         5.0572804972        4.8663973338       23.1481775634
 Zn         3.3715689300        7.7864072342       23.1479395240
 In         0.0001087384       -0.0000628262        0.0530287531
 In        -1.6857839783        2.9199890598        0.0530286877
 In        -3.3715514804        5.8397367299        0.0531034138
 In         3.3715681305       -0.0000192388        0.0531035557
 In         1.6857308923        2.9198328445        0.0528335289
 In        -0.0000165629        5.8397367209        0.0531034783
 In         6.7430275609       -0.0000629168        0.0530285963
 In         5.0574054051        2.9198327968        0.0528335374
 In         3.3715681239        5.8397885856        0.0528334812
 In         1.6786204773        0.9751801825        8.7729838518
 In        -0.0019440134        3.8859989639        8.7729800037
 In        -1.6857833755        6.8130146816        8.7675252964
 In         5.0645170483        0.9751787307        8.7729799691
 In         3.3715686485        3.8931511088        8.6627149997
 In         1.6910062209        6.8182748238        8.7729801843
 In         8.4289202219        0.9732878451        8.7740756500
 In         6.7450811327        3.8860009645        8.7729799671
 In         5.0521315129        6.8182726373        8.7729838704
 In         0.0003851322        1.9467979682       17.5098645487
 In        -1.6857847730        4.8666903826       17.5085800525
 In        -3.3713509805        7.7861775503       17.5085807673
 In         3.3715669829        1.9392030702       17.5324800714
 In         1.6793984782        4.8701260465       17.5324807062
 In        -0.0002177966        7.7861780140       17.5085800297
 In         6.7427495471        1.9467988607       17.5098637466
 In         5.0637364204        4.8701265556       17.5324801271
 In         3.3715681432        7.7858582156       17.5098645525
 Ga         0.0000828449       -0.0000478805       20.5788443618
 Ga        -1.6857845300        2.9199593189       20.5788442598
 Ga        -3.3709782085        5.8400681359       20.5810762877
 Ga         3.3715677448       -0.0006813690       20.5810762911
 Ga         1.6852180854        2.9195370718       20.5815459097
 Ga        -0.0005903622        5.8400680203       20.5810760736
 Ga         6.7430529055       -0.0000475322       20.5788442240
 Ga         5.0579174453        2.9195371056       20.5815460078
 Ga         3.3715677819        5.8403805252       20.5815458814
 Ga         1.6860560075        0.9726565578        3.1223252252
 Ga        -0.0004105305        3.8937026402        3.1223252122
 Ga        -1.6857842146        6.8130151389        3.1245585783
 Ga         5.0570789722        0.9726571532        3.1223252590
 Ga         3.3715676820        3.8931517112        3.1226888223
 Ga         1.6851014379        6.8130950011        3.1223252295
 Ga         8.4289197670        0.9732881012        3.1220152338
 Ga         6.7435457868        3.8937033783        3.1223252901
 Ga         5.0580348065        6.8130951511        3.1223252591
 Ga        -0.0008964560        1.9460468120       11.8486132042
 Ga        -1.6857997703        4.8731438304       11.8513054160
 Ga        -3.3657650957        7.7829525749       11.8513053209
 Ga         3.3716119167        1.8803481835       11.8377822331
 Ga         1.6282621473        4.8996498446       11.8377809300
 Ga        -0.0058140618        7.7829643822       11.8513054974
 Ga         6.7440468517        1.9460497692       11.8486135628
 Ga         5.1147289417        4.8995153273       11.8377822778
 Ga         3.3715778529        7.7873436437       11.8486131992
  O         0.0000871848       -0.0000503287        3.1557552133
  O        -1.6857839829        2.9199638233        3.1557552945
  O        -3.3712386278        5.8399170512        3.1563507030
  O         3.3715683836       -0.0003802531        3.1563506813
  O         1.6860190942        2.9199983319        3.1575436161
  O        -0.0003283207        5.8399167288        3.1563507098
  O         6.7430493155       -0.0000502093        3.1557553404
  O         5.0571178459        2.9199987964        3.1575437490
  O         3.3715688684        5.8394562250        3.1575436393
  O         1.6826401429        0.9593103585       11.8734526488
  O        -0.0137446228        3.8973846605       11.8734529192
  O        -1.6857813467        6.8130135339       11.8698597961
  O         5.0605393370        0.9592965960       11.8734525917
  O         1.6752457413        6.8228019187       11.8734529456
  O         8.4289256736        0.9732846773       11.8698298666
  O         6.7568466497        3.8973869313       11.8734524367
  O         5.0678850729        6.8227266829       11.8734526298
  O        -0.0005515987        1.9462567608       20.5971309571
  O        -1.6857836045        4.8662649835       20.5982716074
  O        -3.3717183688        7.7863896562       20.5982719376
  O         3.3715684754        1.9464061072       20.5966626577
  O         1.6856378944        4.8665238052       20.5966625671
  O         0.0001512838        7.7863897242       20.5982716340
  O         6.7436884108        1.9462568690       20.5971311514
  O         5.0574992039        4.8665238757       20.5966626004
  O         3.3715684716        7.7869400433       20.5971309640
  O         0.0005705678       -0.0003294864        7.7012857193
  O        -1.6857835753        2.9205240981        7.7012858332
  O        -3.3906730932        5.8287009715        7.7136658737
  O         3.3715644938        0.0220583650        7.7136657794
  O         1.6735885247        2.9128235133        7.6879696820
  O         0.0191097449        5.8286940999        7.7136660650
  O         6.7425643183       -0.0003308177        7.7012857870
  O         5.0695516577        2.9128200915        7.6879683311
  O         3.3715670750        5.8538087271        7.6879697401
  O         1.6939870970        0.9785752364       16.4135409525
  O         0.0086830289        3.8976106730       16.4135433243
  O        -1.6857837039        6.8130148078       16.4277286031
  O         5.0491469361        0.9785775481       16.4135432881
  O         3.3715671726        3.8931521705       16.4576097027
  O         1.6862639181        6.8032657856       16.4135432916
  O         8.4289198324        0.9732880404       16.4190675107
  O         6.7344524897        3.8976126904       16.4135433990
  O         5.0568745588        6.8032672030       16.4135410121
  O         0.0001299498        1.9466504263       25.1481824167
  O        -1.6857837758        4.8665125429       25.1482289113
  O        -3.3715044297        7.7862662075       25.1482288951
  O         3.3715683115        1.9467562470       25.1483275855
  O         1.6859407913        4.8663488812       25.1483275085
  O        -0.0000632489        7.7862661311       25.1482289430
  O         6.7430067374        1.9466503855       25.1481823637
  O         5.0571958221        4.8663488768       25.1483274738
  O         3.3715683166        7.7861530212       25.1481822896
  O         0.0017786149       -0.0010268205       18.5911473350
  O        -1.6857850104        2.9219173977       18.5911469537
  O        -3.3689245954        5.8412535173       18.5963771279
  O         3.3715681312       -0.0030523873       18.5963770927
  O         1.6829349537        2.9182189805       18.5968475593
  O        -0.0026440250        5.8412538157       18.5963766299
  O         6.7413569388       -0.0010261004       18.5911469129
  O         5.0602006505        2.9182188487       18.5968476418
  O         3.3715676937        5.8430169057       18.5968475399
  O         1.6858711130        0.9737433862        1.1450344792
  O         0.0004378769        3.8929994290        1.1450345178
  O        -1.6857841188        6.8130151386        1.1457909242
  O         5.0572649896        0.9737432476        1.1450345438
  O         3.3715680411        3.8931515987        1.1446470610
  O         1.6861346902        6.8127119522        1.1450345288
  O         8.4289200819        0.9732879929        1.1450080673
  O         6.7426982611        3.8929994022        1.1450345470
  O         5.0570012340        6.8127119786        1.1450345008
  O         0.0047189980        1.9492991073        9.8740186791
  O        -1.6857833183        4.8656975425        9.8682449827
  O        -3.3722127975        7.7866750903        9.8682462515
  O         3.3715730584        2.0542952431        9.9221986749
  O         1.7790624732        4.8125849832        9.9222046245
  O         0.0006427722        7.7866732586        9.8682450469
  O         6.7384181761        1.9492995154        9.8740177602
  O         4.9640667369        4.8125751827        9.9221987075
  O         3.3715689830        7.7808542651        9.8740186964
  O         0.0000338779       -0.0000194738       22.5788029230
  O        -1.6857835838        2.9199017754       22.5788030408
  O        -3.3717894648        5.8395989629       22.5798451737
  O         3.3715685308        0.0002559202       22.5798453033
  O         1.6858257208        2.9198870614       22.5798255363
  O         0.0002222781        5.8395989572       22.5798451073
  O         6.7431032608       -0.0000194860       22.5788029683
  O         5.0573112151        2.9198871276       22.5798256397
  O         3.3715685658        5.8396794420       22.5798253247
  O         1.6861413748        0.9711404979        5.1336556036
  O        -0.0016810617        3.8945345795        5.1336555936
  O        -1.6857838301        6.8130149452        5.1405344358
  O         5.0569950013        0.9711402362        5.1336555811
  O         3.3715681486        3.8931516414        5.1389350015
  O         1.6837458911        6.8137794321        5.1336556176
  O         8.4289200684        0.9732879889        5.1312710097
  O         6.7448174983        3.8945347886        5.1336557058
  O         5.0593904641        6.8137793397        5.1336556805
  O         0.0038637512        1.9488056619       13.8414202713
  O        -1.6857837579        4.8683483435       13.8551425176
  O        -3.3699177405        7.7853500819       13.8551400693
  O         3.3715699700        2.0324645204       13.7830688849
  O         1.7601617782        4.8234974157       13.7830613188
  O        -0.0016529781        7.7853481812       13.8551426986
  O         6.7392722211        1.9488064812       13.8414216464
  O         4.9829711969        4.8234933905       13.7830688030
  O         3.3715687198        7.7818418055       13.8414202517
     188
 i =        4, E =     -6889.1466653661
 Zn        -0.0009311597        0.0005377731        5.6892014401
 Zn        -1.6857839118        2.9187881978        5.6892007295
 Zn        -3.3734330859        5.8386506245        5.6940628643
 Zn         3.3715680683        0.0021536130        5.6940628247
 Zn         1.6811803462        2.9172061035        5.6764674720
 Zn         0.0018657509        5.8386501642        5.6940625916
 Zn         6.7440676922        0.0005377471        5.6892007405
 Zn         5.0619566360        2.9172052851        5.6764657726
 Zn         3.3715678532        5.8450430267        5.6764674704
 Zn         1.6815725245        0.9754398653       14.4232257429
 Zn        -0.0002489456        3.8884248275       14.4232342664
 Zn        -1.6857860827        6.8130163125       14.4374113430
 Zn         5.0615689983        0.9754373984       14.4232327573
 Zn         3.3715608045        3.8931557980       14.5206597795
 Zn         1.6897531615        6.8155940889       14.4232343220
 Zn         8.4289209689        0.9732874987       14.4244003819
 Zn         6.7433831384        3.8884248904       14.4232328122
 Zn         5.0533827628        6.8155864565       14.4232258017
 Zn        -0.0002915098        1.9464067736       23.1481945534
 Zn        -1.6857832832        4.8661919239       23.1482961191
 Zn        -3.3717812783        7.7864260740       23.1482961813
 Zn         3.3715687236        1.9465762650       23.1486535905
 Zn         1.6857855030        4.8664386358       23.1486535901
 Zn         0.0002147298        7.7864261032       23.1482961339
 Zn         6.7434289605        1.9464067596       23.1481945003
 Zn         5.0573520690        4.8664386374       23.1486535507
 Zn         3.3715687730        7.7866400094       23.1481944324
 In        -0.0000293253        0.0000169417        0.0510753148
 In        -1.6857839848        2.9198296123        0.0510753645
 In        -3.3714345519        5.8398042002        0.0512101803
 In         3.3715681609       -0.0001541844        0.0512102814
 In         1.6857626568        2.9198511079        0.0505495398
 In        -0.0001333730        5.8398041830        0.0512103169
 In         6.7431656168        0.0000168694        0.0510752694
 In         5.0573736987        2.9198511016        0.0505495240
 In         3.3715681793        5.8397519559        0.0505495199
 In         1.6778194643        0.9740414539        8.7739902813
 In        -0.0033318680        3.8858748701        8.7739820119
 In        -1.6857835381        6.8130147704        8.7680567522
 In         5.0653188612        0.9740403935        8.7739827122
 In         3.3715676366        3.8931517063        8.6713854718
 In         1.6904197494        6.8195387923        8.7739821617
 In         8.4289207721        0.9732875254        8.7713958971
 In         6.7464678520        3.8858757221        8.7739827433
 In         5.0527171515        6.8195356912        8.7739903003
 In         0.0004423491        1.9468307320       17.5067973602
 In        -1.6857847509        4.8663900613       17.5053070123
 In        -3.3716109149        7.7863276349       17.5053070534
 In         3.3715667255        1.9396064523       17.5327897649
 In         1.6797475253        4.8699245200       17.5327913790
 In         0.0000422866        7.7863281580       17.5053069537
 In         6.7426925446        1.9468317984       17.5067969343
 In         5.0633869796        4.8699251009       17.5327898262
 In         3.3715684203        7.7857923281       17.5067973218
 Ga         0.0001149196       -0.0000663777       20.5798524892
 Ga        -1.6857843093        2.9199965719       20.5798521719
 Ga        -3.3709887791        5.8400615977       20.5825042746
 Ga         3.3715681013       -0.0006689301       20.5825042784
 Ga         1.6849084770        2.9193587145       20.5831749280
 Ga        -0.0005802566        5.8400621834       20.5825040722
 Ga         6.7430207815       -0.0000663011       20.5798521597
 Ga         5.0582275105        2.9193581247       20.5831747914
 Ga         3.3715674606        5.8407378469       20.5831749126
 Ga         1.6858961972        0.9722962472        3.1239412963
 Ga        -0.0008036959        3.8937447687        3.1239412105
 Ga        -1.6857843051        6.8130151567        3.1263634116
 Ga         5.0572400771        0.9722962559        3.1239412122
 Ga         3.3715676795        3.8931517007        3.1240988949
 Ga         1.6848683545        6.8134143828        3.1239412223
 Ga         8.4289199732        0.9732879310        3.1243286332
 Ga         6.7439388738        3.8937442566        3.1239412238
 Ga         5.0582669265        6.8134136555        3.1239412782
 Ga        -0.0019983669        1.9454234420       11.8473918779
 Ga        -1.6857999372        4.8734380119       11.8508409042
 Ga        -3.3655064565        7.7828032767       11.8508406702
 Ga         3.3715943576        1.8666002449       11.8382568645
 Ga         1.6164540509        4.9064672582       11.8382545683
 Ga        -0.0060690248        7.7828174335       11.8508409442
 Ga         6.7451472371        1.9454145782       11.8473922797
 Ga         5.1266261981        4.9064044687       11.8382568969
 Ga         3.3715668131        7.7886096872       11.8473918501
  O        -0.0000618332        0.0000356714        3.1523880338
  O        -1.6857836668        2.9197910097        3.1523879833
  O        -3.3709300977        5.8400947322        3.1533339621
  O         3.3715687551       -0.0007363182        3.1533339580
  O         1.6859963912        2.9199860913        3.1550599897
  O        -0.0006371225        5.8400950181        3.1533340725
  O         6.7431991221        0.0000358976        3.1523880081
  O         5.0571401104        2.9199859682        3.1550602241
  O         3.3715681399        5.8394820310        3.1550599822
  O         1.6797011535        0.9561643246       11.8757815773
  O        -0.0179029716        3.8964445771       11.8757791869
  O        -1.6857806469        6.8130130834       11.8742289969
  O         5.0634602724        0.9561606719       11.8757806771
  O         1.6739806660        6.8268732395       11.8757791180
  O         8.4289280177        0.9732833629       11.8740289696
  O         6.7610228961        3.8964253364       11.8757805900
  O         5.0691401442        6.8268449300       11.8757815530
  O        -0.0008996917        1.9460558829       20.5947367268
  O        -1.6857835872        4.8662289336       20.5956195336
  O        -3.3717493769        7.7864075932       20.5956194896
  O         3.3715684569        1.9464971513       20.5936432141
  O         1.6857159710        4.8664786758       20.5936430027
  O         0.0001824761        7.7864077550       20.5956195251
  O         6.7440369658        1.9460556638       20.5947370357
  O         5.0574203657        4.8664783377       20.5936431976
  O         3.3715684223        7.7873419942       20.5947367055
  O        -0.0012234515        0.0007063031        7.7008933302
  O        -1.6857831090        2.9184523823        7.7008919109
  O        -3.3916364187        5.8281466895        7.7158413074
  O         3.3715628438        0.0231697633        7.7158412293
  O         1.6761197596        2.9142865285        7.6910007913
  O         0.0200720323        5.8281385450        7.7158407773
  O         6.7443587181        0.0007046839        7.7008919170
  O         5.0670222584        2.9142804703        7.6909974043
  O         3.3715656986        5.8508851229        7.6910008308
  O         1.6947991882        0.9792834997       16.4134885471
  O         0.0097030308        3.8979597351       16.4134928325
  O        -1.6857836475        6.8130147876       16.4271571976
  O         5.0483347950        0.9792861756       16.4134923790
  O         3.3715659762        3.8931527185       16.4596402287
  O         1.6864715071        6.8022078466       16.4134928563
  O         8.4289197825        0.9732881156       16.4180287874
  O         6.7334327728        3.8979615765       16.4134924159
  O         5.0566672727        6.8022098295       16.4134885895
  O         0.0000332137        1.9465946185       25.1480415060
  O        -1.6857838276        4.8664281326       25.1482432977
  O        -3.3715774260        7.7863083232       25.1482433695
  O         3.3715682905        1.9464934445       25.1482515823
  O         1.6857131173        4.8664802817       25.1482515271
  O         0.0000097970        7.7863083299       25.1482433183
  O         6.7431033943        1.9465946438       25.1480414888
  O         5.0574234523        4.8664802891       25.1482515193
  O         3.3715683458        7.7862647143       25.1480414277
  O         0.0018239516       -0.0010530210       18.5904157881
  O        -1.6857847407        2.9219693921       18.5904152513
  O        -3.3687271691        5.8413674380       18.5964834920
  O         3.3715680920       -0.0032803362       18.5964834728
  O         1.6821527070        2.9177677141       18.5977450778
  O        -0.0028418124        5.8413679487       18.5964830842
  O         6.7413121293       -0.0010522806       18.5904152276
  O         5.0609827392        2.9177674282       18.5977448937
  O         3.3715674810        5.8439200233       18.5977450552
  O         1.6859421932        0.9737338663        1.1462557624
  O         0.0004654911        3.8930653631        1.1462557506
  O        -1.6857840475        6.8130150736        1.1466866645
  O         5.0571937687        0.9737340015        1.1462557670
  O         3.3715680952        3.8931515142        1.1461284855
  O         1.6860913679        6.8126550334        1.1462557582
  O         8.4289201429        0.9732879054        1.1462736637
  O         6.7426706142        3.8930656347        1.1462557446
  O         5.0570449653        6.8126551404        1.1462557102
  O         0.0042209448        1.9490122467        9.8731584797
  O        -1.6857854303        4.8679975681        9.8676867302
  O        -3.3702211264        7.7855252456        9.8676889263
  O         3.3715788298        2.0470217679        9.9246588839
  O         1.7727519074        4.8162283343        9.9246661019
  O        -0.0013501821        7.7855250860        9.8676867868
  O         6.7389197480        1.9490100195        9.8731567138
  O         4.9703686545        4.8162068714        9.9246589519
  O         3.3715684634        7.7814291207        9.8731584726
  O         0.0000015023       -0.0000007860       22.5800471782
  O        -1.6857836542        2.9198644847       22.5800470735
  O        -3.3717609564        5.8396153696       22.5813060508
  O         3.3715685303        0.0002230230       22.5813061123
  O         1.6858429091        2.9198970958       22.5811748465
  O         0.0001937664        5.8396153758       22.5813059058
  O         6.7431355331       -0.0000007501       22.5800470438
  O         5.0572939848        2.9198971061       22.5811748122
  O         3.3715684954        5.8396595047       22.5811747400
  O         1.6862301060        0.9708165772        5.1348490685
  O        -0.0019175922        3.8947734073        5.1348489314
  O        -1.6857836303        6.8130148401        5.1441244038
  O         5.0569061320        0.9708158294        5.1348488156
  O         3.3715682506        3.8931514620        5.1405092462
  O         1.6834207104        6.8138648231        5.1348489768
  O         8.4289202423        0.9732878975        5.1339692710
  O         6.7450540317        3.8947738641        5.1348488722
  O         5.0597153799        6.8138644960        5.1348490988
  O         0.0040278802        1.9489010166       13.8402639486
  O        -1.6857849389        4.8684157191       13.8563002651
  O        -3.3698595787        7.7853165278       13.8562967878
  O         3.3715748113        2.0311907985       13.7795876235
  O         1.7590499425        4.8241392743       13.7795745989
  O        -0.0017119466        7.7853155318       13.8563003596
  O         6.7391106995        1.9488997702       13.8402665287
  O         4.9840767060        4.8241259868       13.7795875502
  O         3.3715682428        7.7816520156       13.8402639277
     188
 i =        5, E =     -6889.1466539772
 Zn         0.0003357658       -0.0001936856        5.6926525246
 Zn        -1.6857840894        2.9202500255        5.6926448830
 Zn        -3.3750054129        5.8377438109        5.6980526067
 Zn         3.3715669327        0.0039685142        5.6980526619
 Zn         1.6808055732        2.9169911008        5.6804800608
 Zn         0.0034379238        5.8377421860        5.6980505992
 Zn         6.7428016468       -0.0001930059        5.6926450015
 Zn         5.0623328204        2.9169881752        5.6804772972
 Zn         3.3715667349        5.8454748480        5.6804799920
 Zn         1.6773987147        0.9734952670       14.4247067283
 Zn        -0.0040309214        3.8857833572       14.4247248630
 Zn        -1.6857841815        6.8130153085       14.4379895335
 Zn         5.0657524871        0.9734944302       14.4247249670
 Zn         3.3715512786        3.8931608766       14.5123739849
 Zn         1.6901495285        6.8201899261       14.4247250719
 Zn         8.4289270678        0.9732840303       14.4198019292
 Zn         6.7471576493        3.8857731629       14.4247248403
 Zn         5.0529799850        6.8201732694       14.4247067902
 Zn        -0.0012866805        1.9458328586       23.1490204116
 Zn        -1.6857832893        4.8653009405       23.1495093187
 Zn        -3.3725528718        7.7868716391       23.1495092596
 Zn         3.3715685039        1.9461162449       23.1504654315
 Zn         1.6853862179        4.8666688705       23.1504658606
 Zn         0.0009860911        7.7868715775       23.1495092641
 Zn         6.7444237609        1.9458325215       23.1490205194
 Zn         5.0577504573        4.8666686343       23.1504655260
 Zn         3.3715682376        7.7877889140       23.1490204168
 In        -0.0005334267        0.0003081339        0.0489134763
 In        -1.6857838872        2.9192472879        0.0489135264
 In        -3.3708626177        5.8401342681        0.0491965463
 In         3.3715682512       -0.0008143879        0.0491965113
 In         1.6858372407        2.9198939722        0.0471794080
 In        -0.0007048793        5.8401341896        0.0491967149
 In         6.7436698988        0.0003081308        0.0489134259
 In         5.0572992528        2.9198941242        0.0471790862
 In         3.3715683597        5.8396659927        0.0471794868
 In         1.6757771495        0.9712471061        8.7758457434
 In        -0.0067751625        3.8855106813        8.7758292025
 In        -1.6857823836        6.8130140612        8.7674985572
 In         5.0673621394        0.9712490022        8.7758258414
 In         3.3715652747        3.8931531342        8.7076276418
 In         1.6890134080        6.8227028773        8.7758292227
 In         8.4289242081        0.9732855904        8.7578268897
 In         6.7499068554        3.8855018453        8.7758260074
 In         5.0541159527        6.8227015176        8.7758457768
 In         0.0005469487        1.9468896232       17.4991446946
 In        -1.6857849790        4.8655903673       17.4969204022
 In        -3.3723029076        7.7867272490       17.4969167259
 In         3.3715655465        1.9409432667       17.5396461235
 In         1.6809040193        4.8692567970       17.5396526333
 In         0.0007346878        7.7867282627       17.4969202781
 In         6.7425892002        1.9468915899       17.4991462468
 In         5.0622287982        4.8692577460       17.5396461988
 In         3.3715698707        7.7856725007       17.4991445402
 Ga         0.0000554015       -0.0000319783       20.5798849832
 Ga        -1.6857835602        2.9199282329       20.5798839446
 Ga        -3.3706959178        5.8402296198       20.5843397609
 Ga         3.3715689427       -0.0010065552       20.5843397594
 Ga         1.6839170366        2.9187875440       20.5863762496
 Ga        -0.0008746472        5.8402321206       20.5843399756
 Ga         6.7430804493       -0.0000326227       20.5798840084
 Ga         5.0592203958        2.9187850234       20.5863749561
 Ga         3.3715664920        5.8418821085       20.5863762768
 Ga         1.6854824354        0.9712871865        3.1251950143
 Ga        -0.0018880100        3.8938920626        3.1251945719
 Ga        -1.6857847953        6.8130153470        3.1280800508
 Ga         5.0576574985        0.9712853282        3.1251944308
 Ga         3.3715676280        3.8931516377        3.1243697425
 Ga         1.6841985480        6.8142796500        3.1251945618
 Ga         8.4289208930        0.9732872225        3.1275131097
 Ga         6.7450230079        3.8938880225        3.1251943827
 Ga         5.0589338423        6.8142763827        3.1251948515
 Ga        -0.0071100605        1.9424926058       11.8455878120
 Ga        -1.6857836568        4.8755669875       11.8516055633
 Ga        -3.3636600838        7.7817373358       11.8516067659
 Ga         3.3715324322        1.7910543219       11.8415162939
 Ga         1.5512710297        4.9441004590       11.8415094818
 Ga        -0.0079047942        7.7817388842       11.8516054473
 Ga         6.7502435329        1.9424725586       11.8455887723
 Ga         5.1920199662        4.9442308783       11.8415163305
 Ga         3.3715493101        7.7945021918       11.8455877637
  O        -0.0004477519        0.0002583880        3.1486516522
  O        -1.6857828770        2.9193431082        3.1486512242
  O        -3.3694504200        5.8409479577        3.1504623482
  O         3.3715696345       -0.0024444587        3.1504624076
  O         1.6860854276        2.9200399840        3.1533616153
  O        -0.0021179878        5.8409500068        3.1504624985
  O         6.7435873816        0.0002591077        3.1486511702
  O         5.0570499256        2.9200381241        3.1533620689
  O         3.3715660572        5.8393780428        3.1533615439
  O         1.6637876643        0.9394490041       11.8807576181
  O        -0.0402365576        3.8910868330       11.8807537767
  O        -1.6857867043        6.8130165615       11.8860624814
  O         5.0793152681        0.9394697264       11.8807563266
  O         1.6674537449        6.8488934144       11.8807534327
  O         8.4289250090        0.9732852115       11.8838935614
  O         6.7834052662        3.8910400135       11.8807564699
  O         5.0756593280        6.8489840176       11.8807576236
  O        -0.0022341542        1.9452856380       20.5915565085
  O        -1.6857837018        4.8657510774       20.5921574167
  O        -3.3721626380        7.7866463057       20.5921567390
  O         3.3715684027        1.9465197994       20.5880898554
  O         1.6857333035        4.8664684833       20.5880891356
  O         0.0005961252        7.7866468277       20.5921572837
  O         6.7453727670        1.9452845391       20.5915567985
  O         5.0574007687        4.8664669238       20.5880900064
  O         3.3715683314        7.7888829828       20.5915564541
  O        -0.0063948137        0.0036920257        7.6995377780
  O        -1.6857810075        2.9124774172        7.6995287758
  O        -3.3957642394        5.8257717731        7.7245687312
  O         3.3715556341        0.0279320391        7.7245687017
  O         1.6874589576        2.9208376217        7.7058060722
  O         0.0241932464        5.8257592365        7.7245633586
  O         6.7495342829        0.0036905211        7.6995289108
  O         5.0556863790        2.9208253791        7.7057964452
  O         3.3715619882        5.8377896367        7.7058060648
  O         1.6980155337        0.9824450504       16.4118544751
  O         0.0140513497        3.8991636150       16.4118598399
  O        -1.6857833759        6.8130147319       16.4242601850
  O         5.0451184447        0.9824500029       16.4118617672
  O         3.3715619581        3.8931545548       16.4653303528
  O         1.6876026676        6.7978400152       16.4118599937
  O         8.4289199496        0.9732881249       16.4119129523
  O         6.7290847792        3.8991646124       16.4118615715
  O         5.0555375880        6.7978438137       16.4118544304
  O        -0.0002049329        1.9464573085       25.1473064961
  O        -1.6857838959        4.8658673289       25.1480386254
  O        -3.3720627854        7.7865884806       25.1480386032
  O         3.3715683238        1.9458483527       25.1477438372
  O         1.6851542840        4.8668027503       25.1477440810
  O         0.0004953306        7.7865886433       25.1480385940
  O         6.7433412925        1.9464574540       25.1473066778
  O         5.0579822361        4.8668027206       25.1477439546
  O         3.3715683494        7.7865396471       25.1473065737
  O         0.0020549046       -0.0011864508       18.5838633088
  O        -1.6857833695        2.9222340063       18.5838623602
  O        -3.3676955759        5.8419634890       18.5937419569
  O         3.3715673944       -0.0044717867       18.5937420006
  O         1.6789905859        2.9159427679       18.5986010505
  O        -0.0038759987        5.8419648403       18.5937424107
  O         6.7410839082       -0.0011855799       18.5838623826
  O         5.0641439997        2.9159426456       18.5985994277
  O         3.3715672028        5.8475710927       18.5986009822
  O         1.6862237089        0.9737668667        1.1467508169
  O         0.0006351690        3.8932916144        1.1467506362
  O        -1.6857836875        6.8130148119        1.1458901299
  O         5.0569125112        0.9737676613        1.1467505702
  O         3.3715683989        3.8931511491        1.1476536630
  O         1.6859801384        6.8123948384        1.1467506274
  O         8.4289202267        0.9732876389        1.1461850719
  O         6.7425007051        3.8932921235        1.1467504870
  O         5.0571569882        6.8123947288        1.1467505705
  O         0.0023281597        1.9479247478        9.8733026151
  O        -1.6858001921        4.8751687037        9.8671530342
  O        -3.3640079299        7.7819382160        9.8671600768
  O         3.3715904483        2.0211637065        9.9399574605
  O         1.7503406320        4.8291673595        9.9399711738
  O        -0.0075680992        7.7819523396        9.8671530462
  O         6.7408259112        1.9479098168        9.8732986321
  O         4.9927682535        4.8291256976        9.9399577293
  O         3.3715641452        7.7836124525        9.8733025665
  O         0.0000416315       -0.0000239835       22.5820515945
  O        -1.6857837945        2.9199113346       22.5820508595
  O        -3.3717152904        5.8396414755       22.5839762922
  O         3.3715685723        0.0001703950       22.5839760769
  O         1.6859186977        2.9199414986       22.5837991126
  O         0.0001479778        5.8396416584       22.5839761324
  O         6.7430949653       -0.0000239417       22.5820509843
  O         5.0572181181        2.9199410492       22.5837985036
  O         3.3715680435        5.8395715482       22.5837994141
  O         1.6867500272        0.9702556643        5.1366730236
  O        -0.0021446764        3.8955047419        5.1366721953
  O        -1.6857831500        6.8130145747        5.1549378373
  O         5.0563855751        0.9702532258        5.1366718918
  O         3.3715689991        3.8931506208        5.1427240355
  O         1.6826735056        6.8136956867        5.1366722841
  O         8.4289213586        0.9732873130        5.1407263601
  O         6.7452810189        3.8955056633        5.1366716898
  O         5.0604611808        6.8136947987        5.1366728768
  O         0.0053775792        1.9496860656       13.8372859586
  O        -1.6857950042        4.8686393628       13.8642072321
  O        -3.3696632801        7.7852032804       13.8642016170
  O         3.3715873934        2.0266146505       13.7616609154
  O         1.7550723482        4.8264355332       13.7616264317
  O        -0.0019108067        7.7852124564       13.8642069927
  O         6.7377722967        1.9496726585       13.8372932080
  O         4.9880460960        4.8264028835       13.7616609140
  O         3.3715633964        7.7800906924       13.8372859942
     188
 i =        6, E =     -6889.1474509881
 Zn        -0.0001989519        0.0001149943        5.6904251051
 Zn        -1.6857838495        2.9196327612        5.6904201307
 Zn        -3.3741668315        5.8382278727        5.6957284455
 Zn         3.3715671728        0.0030003270        5.6957284471
 Zn         1.6820294347        2.9176970167        5.6796689488
 Zn         0.0025989675        5.8382267192        5.6957264671
 Zn         6.7433362948        0.0001153590        5.6904202048
 Zn         5.0611083966        2.9176950416        5.6796662396
 Zn         3.3715672770        5.8440621438        5.6796689236
 Zn         1.6788675161        0.9740480957       14.4250815331
 Zn        -0.0028094640        3.8867810807       14.4250892016
 Zn        -1.6857850233        6.8130157448       14.4392448859
 Zn         5.0642754056        0.9740488097       14.4250896868
 Zn         3.3715641703        3.8931535952       14.5123157668
 Zn         1.6898962522        6.8186333307       14.4250892791
 Zn         8.4289242489        0.9732856089       14.4212181577
 Zn         6.7459389493        3.8867752464       14.4250896582
 Zn         5.0532356243        6.8186248751       14.4250815366
 Zn        -0.0010332465        1.9459788674       23.1487797150
 Zn        -1.6857833772        4.8656845672       23.1490742898
 Zn        -3.3722206958        7.7866798124       23.1490740323
 Zn         3.3715686361        1.9461874874       23.1499397776
 Zn         1.6854481944        4.8666332316       23.1499402305
 Zn         0.0006539562        7.7866798607       23.1490742328
 Zn         6.7441705730        1.9459786488       23.1487797275
 Zn         5.0576887659        4.8666330063       23.1499397973
 Zn         3.3715684896        7.7874963671       23.1487796651
 In        -0.0002664675        0.0001538942        0.0507901414
 In        -1.6857839017        2.9195555462        0.0507898945
 In        -3.3710836391        5.8400067236        0.0509779181
 In         3.3715682133       -0.0005592840        0.0509779462
 In         1.6857750287        2.9198581412        0.0497160304
 In        -0.0004840975        5.8400067112        0.0509779682
 In         6.7434029920        0.0001539149        0.0507897943
 In         5.0573614291        2.9198582263        0.0497157107
 In         3.3715682957        5.8397377779        0.0497160518
 In         1.6767816327        0.9730747572        8.7739483629
 In        -0.0046897972        3.8854636115        8.7739394956
 In        -1.6857844473        6.8130152797        8.7660729310
 In         5.0663566297        0.9730752454        8.7739365599
 In         3.3715684853        3.8931512225        8.6963207303
 In         1.6900969001        6.8209204331        8.7739395747
 In         8.4289220220        0.9732868395        8.7618637181
 In         6.7478225854        3.8854595185        8.7739366553
 In         5.0530353922        6.8209178507        8.7739483796
 In         0.0004560989        1.9468377105       17.5032138367
 In        -1.6857850654        4.8661156579       17.5013894037
 In        -3.3718479652        7.7864645468       17.5013869414
 In         3.3715659003        1.9405008322       17.5389908595
 In         1.6805212546        4.8694778042       17.5389958096
 In         0.0002797411        7.7864656582       17.5013893277
 In         6.7426798300        1.9468392075       17.5032152990
 In         5.0626120831        4.8694786483       17.5389909127
 In         3.3715693358        7.7857770633       17.5032137523
 Ga         0.0000333356       -0.0000192817       20.5788380190
 Ga        -1.6857839231        2.9199023154       20.5788373804
 Ga        -3.3706920816        5.8402326474       20.5828389693
 Ga         3.3715682662       -0.0010114085       20.5828389714
 Ga         1.6843895570        2.9190596686       20.5848072486
 Ga        -0.0008778323        5.8402339622       20.5828393092
 Ga         6.7431026600       -0.0000194507       20.5788374143
 Ga         5.0587470383        2.9190582626       20.5848062859
 Ga         3.3715670492        5.8413367970       20.5848072549
 Ga         1.6857925285        0.9720749490        3.1239759183
 Ga        -0.0010482924        3.8937659711        3.1239754600
 Ga        -1.6857846232        6.8130153184        3.1260696540
 Ga         5.0573448724        0.9720743565        3.1239755168
 Ga         3.3715676876        3.8931516301        3.1233866079
 Ga         1.6847276326        6.8136155512        3.1239754711
 Ga         8.4289205662        0.9732875248        3.1249025374
 Ga         6.7441833986        3.8937643564        3.1239755075
 Ga         5.0584067078        6.8136140362        3.1239758575
 Ga        -0.0049775119        1.9437143153       11.8469159043
 Ga        -1.6857864823        4.8741603346       11.8517313042
 Ga        -3.3648755575        7.7824390301       11.8517327759
 Ga         3.3715541744        1.8162238845       11.8406986369
 Ga         1.5729622509        4.9315771444       11.8406934474
 Ga        -0.0066878763        7.7824446318       11.8517312874
 Ga         6.7481134073        1.9437021707       11.8469159857
 Ga         5.1702333300        4.9316273224       11.8406986995
 Ga         3.3715574472        7.7920443566       11.8469158816
  O        -0.0001314189        0.0000758122        3.1531014311
  O        -1.6857835354        2.9197098543        3.1531015658
  O        -3.3698201578        5.8407353698        3.1543998197
  O         3.3715689025       -0.0020178881        3.1543998577
  O         1.6861934191        2.9201005963        3.1562008188
  O        -0.0017477515        5.8407362421        3.1543997483
  O         6.7432694942        0.0000763599        3.1531016060
  O         5.0569428586        2.9200999112        3.1562011377
  O         3.3715675413        5.8392541842        3.1562008226
  O         1.6701225691        0.9443514378       11.8776496608
  O        -0.0328651844        3.8940872291       11.8776474119
  O        -1.6857823137        6.8130140597       11.8797952620
  O         5.0730011492        0.9443619891       11.8776496598
  O         1.6685410472        6.8410094665       11.8776472158
  O         8.4289242027        0.9732856010       11.8778901937
  O         6.7760113388        3.8940619685       11.8776497142
  O         5.0745810969        6.8410466039       11.8776496530
  O        -0.0017946242        1.9455392477       20.5937746423
  O        -1.6857837956        4.8657879090       20.5946663581
  O        -3.3721310976        7.7866280350       20.5946665606
  O         3.3715684134        1.9463807250       20.5910531535
  O         1.6856140867        4.8665373933       20.5910522557
  O         0.0005642261        7.7866284526       20.5946663027
  O         6.7449323924        1.9455387195       20.5937744416
  O         5.0575211925        4.8665365090       20.5910532312
  O         3.3715684074        7.7883754337       20.5937746597
  O        -0.0029246368        0.0016885149        7.6995115084
  O        -1.6857820604        2.9164843550        7.6995052092
  O        -3.3947077251        5.8263777567        7.7209822587
  O         3.3715591352        0.0267140887        7.7209821962
  O         1.6830974765        2.9183179509        7.7015271743
  O         0.0231383547        5.8263682708        7.7209789431
  O         6.7460636376        0.0016879057        7.6995052812
  O         5.0600420161        2.9183106113        7.7015194175
  O         3.3715633243        5.8428265878        7.7015271951
  O         1.6970126125        0.9816369101       16.4121386262
  O         0.0128501287        3.8987000669       16.4121398533
  O        -1.6857831895        6.8130145692       16.4260740050
  O         5.0461212130        0.9816418204       16.4121414637
  O         3.3715638158        3.8931537711       16.4599968306
  O         1.6874036828        6.7991121666       16.4121398870
  O         8.4289203033        0.9732878744       16.4134017606
  O         6.7302859967        3.8987005163       16.4121413923
  O         5.0557359392        6.7991163435       16.4121385707
  O         0.0000087450        1.9465805542       25.1475840907
  O        -1.6857837544        4.8660400701       25.1479992480
  O        -3.3719134104        7.7865022941       25.1479990874
  O         3.3715683307        1.9463531779       25.1478979860
  O         1.6855916338        4.8665503247       25.1478982673
  O         0.0003458311        7.7865022365       25.1479992043
  O         6.7431278502        1.9465805714       25.1475841220
  O         5.0575449716        4.8665503160       25.1478980162
  O         3.3715683329        7.7862929485       25.1475840772
  O         0.0020404536       -0.0011780332       18.5850004008
  O        -1.6857835046        2.9222181334       18.5849997239
  O        -3.3678109674        5.8418966962       18.5941215680
  O         3.3715677127       -0.0043384604       18.5941215803
  O         1.6801578102        2.9166168518       18.5979533496
  O        -0.0037597444        5.8418978241       18.5941219154
  O         6.7410974411       -0.0011776158       18.5849997315
  O         5.0629767704        2.9166163511       18.5979522682
  O         3.3715668691        5.8462231251       18.5979533022
  O         1.6861091322        0.9737391143        1.1460201304
  O         0.0005532278        3.8932069792        1.1460199635
  O        -1.6857839094        6.8130149666        1.1454159109
  O         5.0570273411        0.9737393093        1.1460200239
  O         3.3715682647        3.8931513322        1.1463882211
  O         1.6860125277        6.8125081759        1.1460199759
  O         8.4289202021        0.9732877898        1.1452680857
  O         6.7425827578        3.8932069817        1.1460199923
  O         5.0571238300        6.8125078845        1.1460200247
  O         0.0035614350        1.9486344433        9.8746766318
  O        -1.6857920041        4.8716292839        9.8673738923
  O        -3.3670754272        7.7837091504        9.8673798639
  O         3.3715771382        2.0317444106        9.9378936117
  O         1.7595287321        4.8238626245        9.9378995166
  O        -0.0044987590        7.7837149281        9.8673739484
  O         6.7395843016        1.9486264637        9.8746731443
  O         4.9835984410        4.8238469131        9.9378938208
  O         3.3715659960        7.7821893799        9.8746766216
  O         0.0001053780       -0.0000607884       22.5804339777
  O        -1.6857836722        2.9199848131       22.5804336316
  O        -3.3717940401        5.8395960826       22.5820040372
  O         3.3715685884        0.0002612929       22.5820039483
  O         1.6859228865        2.9199437852       22.5820772424
  O         0.0002266848        5.8395962868       22.5820040903
  O         6.7430313843       -0.0000608296       22.5804336883
  O         5.0572140846        2.9199433345       22.5820768406
  O         3.3715681199        5.8395668455       22.5820773501
  O         1.6866916971        0.9711409475        5.1363318036
  O        -0.0014065883        3.8950114909        5.1363310722
  O        -1.6857836861        6.8130148660        5.1501053339
  O         5.0564442387        0.9711389950        5.1363310520
  O         3.3715685904        3.8931510764        5.1413794009
  O         1.6834698755        6.8133031606        5.1363311197
  O         8.4289210202        0.9732874358        5.1371372136
  O         6.7445432055        3.8950121327        5.1363309755
  O         5.0596652818        6.8133025849        5.1363317415
  O         0.0056305459        1.9498295509       13.8382887738
  O        -1.6857910575        4.8688909708       13.8625977432
  O        -3.3694465439        7.7850781332       13.8625940791
  O         3.3715761647        2.0287871308       13.7644582419
  O         1.7569730180        4.8253382682       13.7644408868
  O        -0.0021267154        7.7850832219       13.8625976590
  O         6.7375148503        1.9498212353       13.8382939317
  O         4.9861590465        4.8253264780       13.7644582293
  O         3.3715655433        7.7797998256       13.8382887874
     188
 i =        7, E =     -6889.1466112251
 Zn        -0.0010685091        0.0006170265        5.6871219924
 Zn        -1.6857833082        2.9186293790        5.6871229741
 Zn        -3.3730210840        5.8388890993        5.6919282456
 Zn         3.3715676343        0.0016776202        5.6919281321
 Zn         1.6832108563        2.9183779624        5.6781452440
 Zn         0.0014531538        5.8388884704        5.6919288161
 Zn         6.7442055755        0.0006166072        5.6871228648
 Zn         5.0599249309        2.9183782669        5.6781457528
 Zn         3.3715682470        5.8426986958        5.6781452817
 Zn         1.6815737091        0.9750526881       14.4252112230
 Zn        -0.0005716153        3.8886283138       14.4252070060
 Zn        -1.6857833570        6.8130147114       14.4403323158
 Zn         5.0615564119        0.9750522853       14.4252081645
 Zn         3.3715777949        3.8931460258       14.5142844410
 Zn         1.6894155922        6.8157719169       14.4252070234
 Zn         8.4289189498        0.9732886004       14.4239720144
 Zn         6.7437103038        3.8886284730       14.4252081678
 Zn         5.0537187248        6.8157790426       14.4252111884
 Zn        -0.0005802693        1.9462399837       23.1482936229
 Zn        -1.6857835048        4.8661691832       23.1482375389
 Zn        -3.3718010193        7.7864374531       23.1482374004
 Zn         3.3715689354        1.9463796287       23.1490189011
 Zn         1.6856151664        4.8665370316       23.1490191957
 Zn         0.0002343988        7.7864376969       23.1482374937
 Zn         6.7437177769        1.9462400119       23.1482934974
 Zn         5.0575224190        4.8665367892       23.1490188492
 Zn         3.3715688371        7.7869734311       23.1482934747
 In         0.0001993727       -0.0001151328        0.0532327447
 In        -1.6857838935        2.9200934577        0.0532323758
 In        -3.3715447728        5.8397406133        0.0532858430
 In         3.3715680976       -0.0000269646        0.0532859354
 In         1.6856572918        2.9197902385        0.0532208194
 In        -0.0000233136        5.8397405968        0.0532859918
 In         6.7429371734       -0.0001151561        0.0532322594
 In         5.0574790702        2.9197902785        0.0532204916
 In         3.3715682399        5.8398736339        0.0532207649
 In         1.6780586738        0.9747484969        8.7720174007
 In        -0.0025955232        3.8857321266        8.7720194119
 In        -1.6857842697        6.8130151924        8.7661543503
 In         5.0650742009        0.9747457171        8.7720173974
 In         3.3715687201        3.8931510392        8.6763461796
 In         1.6909115214        6.8189724625        8.7720195414
 In         8.4289204727        0.9732876806        8.7699645281
 In         6.7457347499        3.8857349525        8.7720174234
 In         5.0522244920        6.8189750344        8.7720174152
 In         0.0004670105        1.9468462816       17.5087843828
 In        -1.6857842805        4.8668271418       17.5079275508
 In        -3.3712310933        7.7861083369       17.5079302891
 In         3.3715672102        1.9404336255       17.5354918684
 In         1.6804630100        4.8695114664       17.5354906092
 In        -0.0003359690        7.7861092253       17.5079275932
 In         6.7426674907        1.9468462368       17.5087844307
 In         5.0626708630        4.8695111127       17.5354918753
 In         3.3715672240        7.7857631983       17.5087843235
 Ga         0.0000381599       -0.0000220897       20.5783239532
 Ga        -1.6857843826        2.9199076324       20.5783240379
 Ga        -3.3708426961        5.8401463322       20.5809229469
 Ga         3.3715677669       -0.0008378394       20.5809229311
 Ga         1.6851140152        2.9194772198       20.5824245093
 Ga        -0.0007260368        5.8401463301       20.5809230761
 Ga         6.7430977368       -0.0000218350       20.5783240159
 Ga         5.0580214558        2.9194770589       20.5824244648
 Ga         3.3715675854        5.8405005790       20.5824244907
 Ga         1.6860957591        0.9729756949        3.1225731394
 Ga        -0.0001137489        3.8935773601        3.1225728357
 Ga        -1.6857842434        6.8130151517        3.1241033120
 Ga         5.0570386931        0.9729763793        3.1225728785
 Ga         3.3715676214        3.8931517345        3.1224916481
 Ga         1.6853583229        6.8129006321        3.1225728606
 Ga         8.4289198342        0.9732880367        3.1221294526
 Ga         6.7432491815        3.8935786254        3.1225728973
 Ga         5.0577782694        6.8129011593        3.1225731793
 Ga        -0.0009369264        1.9460495868       11.8475667440
 Ga        -1.6857815916        4.8722717489       11.8513594963
 Ga        -3.3664961862        7.7833746269       11.8513578949
 Ga         3.3715354570        1.8700368814       11.8377292142
 Ga         1.6196276628        4.9046347767       11.8377354426
 Ga        -0.0050496592        7.7833846235       11.8513595980
 Ga         6.7440675425        1.9460378588       11.8475667416
 Ga         5.1236204029        4.9047370889       11.8377292097
 Ga         3.3715552139        7.7873772577       11.8475667735
  O         0.0002042524       -0.0001179143        3.1567793186
  O        -1.6857841646        2.9200992546        3.1567796064
  O        -3.3705753085        5.8403003396        3.1575784083
  O         3.3715681243       -0.0011463498        3.1575783896
  O         1.6861613560        2.9200801291        3.1584366070
  O        -0.0009918458        5.8402998386        3.1575784686
  O         6.7429319298       -0.0001177479        3.1567796066
  O         5.0569758944        2.9200807723        3.1584368111
  O         3.3715691752        5.8392921413        3.1584366404
  O         1.6829089013        0.9539943392       11.8735297744
  O        -0.0180963559        3.9003363289       11.8735265488
  O        -1.6857743927        6.8130095099       11.8686498624
  O         5.0601973792        0.9540140670       11.8735268928
  O         1.6705136832        6.8250945680       11.8735266021
  O         8.4289211508        0.9732872462       11.8696709299
  O         6.7612504257        3.9003243247       11.8735267728
  O         5.0726232271        6.8251518109       11.8735298179
  O        -0.0010886051        1.9459467488       20.5970783823
  O        -1.6857836938        4.8659018374       20.5986626559
  O        -3.3720327966        7.7865711914       20.5986634908
  O         3.3715683320        1.9462948098       20.5968968800
  O         1.6855412682        4.8665795663       20.5968968066
  O         0.0004657114        7.7865713402       20.5986627426
  O         6.7442254667        1.9459467773       20.5970775997
  O         5.0575955044        4.8665796204       20.5968968021
  O         3.3715684416        7.7875601191       20.5970784312
  O         0.0001466952       -0.0000847696        7.6999654654
  O        -1.6857838906        2.9200350499        7.6999672535
  O        -3.3928955600        5.8274184981        7.7148943566
  O         3.3715639279        0.0246243803        7.7148942273
  O         1.6780333454        2.9153871717        7.6939438744
  O         0.0213281716        5.8274133074        7.7148957643
  O         6.7429876650       -0.0000860306        7.6999671664
  O         5.0651007770        2.9153898346        7.6939466916
  O         3.3715693110        5.8486776600        7.6939439649
  O         1.6954150109        0.9800908188       16.4124561952
  O         0.0107119731        3.8980896441       16.4124538897
  O        -1.6857836216        6.8130147818       16.4284335259
  O         5.0477174947        0.9800962307       16.4124553146
  O         3.3715691932        3.8931509838       16.4523044024
  O         1.6868636054        6.8012692319       16.4124538472
  O         8.4289202900        0.9732877355       16.4164878295
  O         6.7324225663        3.8980912344       16.4124553788
  O         5.0562759333        6.8012728520       16.4124561870
  O         0.0002214717        1.9467031467       25.1480096950
  O        -1.6857837187        4.8665117340       25.1479409137
  O        -3.3715051476        7.7862666085       25.1479409558
  O         3.3715683503        1.9469264239       25.1481751156
  O         1.6860881924        4.8662638017       25.1481752558
  O        -0.0000625139        7.7862664875       25.1479408981
  O         6.7429153514        1.9467031256       25.1480094924
  O         5.0570484498        4.8662637613       25.1481750515
  O         3.3715683817        7.7860473971       25.1480095735
  O         0.0017971915       -0.0010375866       18.5882547826
  O        -1.6857851518        2.9219391300       18.5882545836
  O        -3.3688813547        5.8412774472       18.5952622682
  O         3.3715690560       -0.0031017912       18.5952622239
  O         1.6825451631        2.9179943984       18.5969143198
  O        -0.0026882520        5.8412793540       18.5952621830
  O         6.7413380536       -0.0010368737       18.5882545567
  O         5.0605912318        2.9179933257       18.5969149288
  O         3.3715672859        5.8434668477       18.5969143019
  O         1.6859652010        0.9736565090        1.1454160957
  O         0.0004096028        3.8931242603        1.1454160728
  O        -1.6857842836        6.8130152794        1.1456406358
  O         5.0571710207        0.9736563034        1.1454158909
  O         3.3715681157        3.8931515464        1.1447965375
  O         1.6860124541        6.8126740481        1.1454160698
  O         8.4289201952        0.9732878883        1.1451511151
  O         6.7427265459        3.8931242398        1.1454158787
  O         5.0571234786        6.8126739430        1.1454161023
  O         0.0045164752        1.9491855797        9.8749748722
  O        -1.6857825052        4.8662271516        9.8671764649
  O        -3.3717498593        7.7864077763        9.8671758190
  O         3.3715602774        2.0557094397        9.9315991014
  O         1.7803155977        4.8118615525        9.9315861699
  O         0.0001844447        7.7864076790        9.8671765468
  O         6.7386149739        1.9491858671        9.8749735854
  O         4.9628356070        4.8118791368        9.9315991201
  O         3.3715660181        7.7810864298        9.8749749121
  O         0.0000769247       -0.0000443411       22.5786007903
  O        -1.6857836353        2.9199515744       22.5786009124
  O        -3.3718803176        5.8395464765       22.5793563160
  O         3.3715685390        0.0003608185       22.5793563860
  O         1.6858675344        2.9199114146       22.5795080871
  O         0.0003129044        5.8395466210       22.5793564222
  O         6.7430601541       -0.0000443030       22.5786008723
  O         5.0572696719        2.9199111387       22.5795079630
  O         3.3715684081        5.8396310420       22.5795079261
  O         1.6864775249        0.9723234228        5.1359208905
  O        -0.0004883199        3.8942347516        5.1359204161
  O        -1.6857840240        6.8130150560        5.1434494293
  O         5.0566587028        0.9723232021        5.1359211002
  O         3.3715676160        3.8931519258        5.1402889748
  O         1.6846019178        6.8128963740        5.1359204477
  O         8.4289205159        0.9732877417        5.1326395774
  O         6.7436248574        3.8942345406        5.1359212047
  O         5.0585340975        6.8128967454        5.1359209654
  O         0.0058578186        1.9499602117       13.8389182100
  O        -1.6857826152        4.8689462294       13.8596767644
  O        -3.3693962520        7.7850490603       13.8596762185
  O         3.3715610909        2.0342606422       13.7689754170
  O         1.7617387988        4.8225869957       13.7689964550
  O        -0.0021702819        7.7850482713       13.8596769264
  O         6.7372765182        1.9499587477       13.8389196425
  O         4.9814112432        4.8226030367       13.7689753449
  O         3.3715659258        7.7795376052       13.8389182093
     188
 i =        8, E =     -6889.1477220604
 Zn        -0.0005327827        0.0003077235        5.6889723571
 Zn        -1.6857835772        2.9192476060        5.6889699911
 Zn        -3.3737871483        5.8384470547        5.6941123999
 Zn         3.3715672841        0.0025619822        5.6941123536
 Zn         1.6827937947        2.9181377690        5.6795904280
 Zn         0.0022192305        5.8384460453        5.6941117346
 Zn         6.7436700062        0.0003077162        5.6889699781
 Zn         5.0603429860        2.9181369355        5.6795897445
 Zn         3.3715677489        5.8431798742        5.6795904256
 Zn         1.6796811090        0.9742537414       14.4254444821
 Zn        -0.0022150675        3.8873881552       14.4254434326
 Zn        -1.6857827801        6.8130144291       14.4403698471
 Zn         5.0634534920        0.9742550316       14.4254450743
 Zn         3.3715743656        3.8931478096       14.5115089937
 Zn         1.6896677637        6.8178151364       14.4254434837
 Zn         8.4289215954        0.9732871063       14.4219192922
 Zn         6.7453493412        3.8873840356       14.4254450260
 Zn         5.0534643276        6.8178174952       14.4254444602
 Zn        -0.0009621721        1.9460197313       23.1487040721
 Zn        -1.6857834613        4.8658065684       23.1488229333
 Zn        -3.3721150792        7.7866188124       23.1488226863
 Zn         3.3715687537        1.9462000326       23.1497647209
 Zn         1.6854592571        4.8666269153       23.1497651768
 Zn         0.0005483332        7.7866189456       23.1488228682
 Zn         6.7440995745        1.9460196198       23.1487040407
 Zn         5.0576779194        4.8666266674       23.1497647158
 Zn         3.3715686342        7.7874143463       23.1487039822
 In        -0.0000757890        0.0000437788        0.0516346016
 In        -1.6857838868        2.9197757001        0.0516342732
 In        -3.3712537229        5.8399085620        0.0517388210
 In         3.3715681827       -0.0003629378        0.0517388610
 In         1.6857251308        2.9198293452        0.0510002016
 In        -0.0003141333        5.8399085571        0.0517389422
 In         6.7432123433        0.0000437837        0.0516341588
 In         5.0574113094        2.9198294154        0.0509998367
 In         3.3715682864        5.8397953731        0.0510001986
 In         1.6770915420        0.9736309583        8.7731836540
 In        -0.0040492994        3.8854551695        8.7731829057
 In        -1.6857837525        6.8130148874        8.7662058997
 In         5.0660430319        0.9736298638        8.7731792185
 In         3.3715692474        3.8931507721        8.6913442922
 In         1.6904244684        6.8203699569        8.7731829995
 In         8.4289209978        0.9732874029        8.7643818049
 In         6.7471854888        3.8854538233        8.7731792968
 In         5.0527087011        6.8203713504        8.7731836791
 In         0.0004806772        1.9468529764       17.5048570520
 In        -1.6857846712        4.8663957196       17.5035759944
 In        -3.3716048546        7.7863241625       17.5035764143
 In         3.3715664809        1.9408058692       17.5377614176
 In         1.6807854343        4.8693253012       17.5377626730
 In         0.0000374281        7.7863252858       17.5035759836
 In         6.7426545096        1.9468537955       17.5048580310
 In         5.0623481766        4.8693256355       17.5377614405
 In         3.3715683499        7.7857480969       17.5048569603
 Ga         0.0000244155       -0.0000141412       20.5787722488
 Ga        -1.6857840967        2.9198919860       20.5787718873
 Ga        -3.3707705862        5.8401874705       20.5822953371
 Ga         3.3715681578       -0.0009208448       20.5822953332
 Ga         1.6846541785        2.9192122498       20.5843095045
 Ga        -0.0007989161        5.8401884022       20.5822955727
 Ga         6.7431114895       -0.0000141787       20.5787719064
 Ga         5.0584820733        2.9192111947       20.5843088918
 Ga         3.3715671901        5.8410313239       20.5843095007
 Ga         1.6858966672        0.9724711640        3.1235567144
 Ga        -0.0006519766        3.8936577302        3.1235563743
 Ga        -1.6857844717        6.8130152516        3.1252829397
 Ga         5.0572396338        0.9724710942        3.1235564741
 Ga         3.3715676615        3.8931516694        3.1231077613
 Ga         1.6850195565        6.8133264936        3.1235563863
 Ga         8.4289202497        0.9732877412        3.1239225170
 Ga         6.7437872049        3.8936571724        3.1235564788
 Ga         5.0581156484        6.8133257787        3.1235566942
 Ga        -0.0038544374        1.9443656669       11.8468435145
 Ga        -1.6857741673        4.8737080119       11.8514814209
 Ga        -3.3652603035        7.7826611332       11.8514819807
 Ga         3.3715318542        1.8313755588       11.8394113585
 Ga         1.5861837622        4.9239436054       11.8394132261
 Ga        -0.0062899132        7.7826600938       11.8514814489
 Ga         6.7469812877        1.9443557304       11.8468432995
 Ga         5.1571003387        4.9240708024       11.8394113912
 Ga         3.3715548433        7.7907459762       11.8468435150
  O         0.0000258962       -0.0000149866        3.1546532810
  O        -1.6857837978        2.9198922550        3.1546535273
  O        -3.3699858933        5.8406400040        3.1558090076
  O         3.3715686479       -0.0018266537        3.1558090246
  O         1.6861964299        2.9201015801        3.1570475210
  O        -0.0015817755        5.8406404263        3.1558088924
  O         6.7431113979       -0.0000145933        3.1546535609
  O         5.0569402307        2.9201014039        3.1570477917
  O         3.3715681752        5.8392510732        3.1570475371
  O         1.6740353612        0.9463047499       11.8759933056
  O        -0.0291790712        3.8965047315       11.8759918565
  O        -1.6857806638        6.8130131065       11.8758413466
  O         5.0690683847        0.9463210159       11.8759929418
  O         1.6682905202        6.8366083179       11.8759917691
  O         8.4289190458        0.9732885262       11.8751974084
  O         6.7723483503        3.8964883286       11.8759929257
  O         5.0748458581        6.8366813195       11.8759933268
  O        -0.0016381635        1.9456296044       20.5946678834
  O        -1.6857837518        4.8657548590       20.5958224430
  O        -3.3721598118        7.7866445786       20.5958226400
  O         3.3715683642        1.9463637184       20.5929414969
  O         1.6855998499        4.8665456601       20.5929409791
  O         0.0005929104        7.7866449158       20.5958224397
  O         6.7447756622        1.9456291755       20.5946675329
  O         5.0575358736        4.8665450825       20.5929415121
  O         3.3715683599        7.7881947091       20.5946679190
  O        -0.0018883739        0.0010902073        7.6995437822
  O        -1.6857828967        2.9176831972        7.6995412387
  O        -3.3945888550        5.8264442322        7.7190568031
  O         3.3715610031        0.0265779364        7.7190567136
  O         1.6817159277        2.9175167322        7.6997940434
  O         0.0230198304        5.8264366699        7.7190558625
  O         6.7450249598        0.0010891446        7.6995412402
  O         5.0614203056        2.9175148229        7.6997924602
  O         3.3715664019        5.8444236760        7.6997940896
  O         1.6967181768        0.9813910163       16.4118344078
  O         0.0124904336        3.8985681052       16.4118323104
  O        -1.6857833040        6.8130146298       16.4272219685
  O         5.0464144872        0.9813970074       16.4118339844
  O         3.3715673783        3.8931518355       16.4557630182
  O         1.6873382469        6.7994897239       16.4118323039
  O         8.4289201722        0.9732878945       16.4139097663
  O         6.7306446091        3.8985690678       16.4118339582
  O         5.0558016128        6.7994942437       16.4118343650
  O         0.0000908328        1.9466278258       25.1477678177
  O        -1.6857837377        4.8662023163       25.1479602325
  O        -3.3717729757        7.7864212233       25.1479601482
  O         3.3715683297        1.9465648401       25.1480000155
  O         1.6857749786        4.8664445318       25.1480002807
  O         0.0002053703        7.7864211445       25.1479601913
  O         6.7430458793        1.9466278498       25.1477677437
  O         5.0573616342        4.8664445173       25.1480000174
  O         3.3715683837        7.7861982142       25.1477677594
  O         0.0019570727       -0.0011298926       18.5858175175
  O        -1.6857841192        2.9221227236       18.5858168398
  O        -3.3683498727        5.8415848962       18.5945258334
  O         3.3715683822       -0.0037158344       18.5945258295
  O         1.6810849642        2.9171520743       18.5976863678
  O        -0.0032204050        5.8415864935       18.5945259328
  O         6.7411796875       -0.0011294467       18.5858168422
  O         5.0620504810        2.9171510281       18.5976861673
  O         3.3715668295        5.8451525801       18.5976863293
  O         1.6860806990        0.9736873140        1.1459524265
  O         0.0004941433        3.8932084415        1.1459523858
  O        -1.6857840694        6.8130150979        1.1455478132
  O         5.0570556590        0.9736873806        1.1459523437
  O         3.3715682160        3.8931514077        1.1459129862
  O         1.6859817551        6.8125586649        1.1459523902
  O         8.4289202084        0.9732878151        1.1453609430
  O         6.7426419097        3.8932084906        1.1459523166
  O         5.0571545008        6.8125584537        1.1459523660
  O         0.0039453275        1.9488569647        9.8749090131
  O        -1.6857884734        4.8695087522        9.8667595880
  O        -3.3689073584        7.7847667503        9.8667620858
  O         3.3715662483        2.0411965563        9.9376720969
  O         1.7677371371        4.8191235804        9.9376637703
  O        -0.0026605428        7.7847720877        9.8667596566
  O         6.7391927533        1.9488524415        9.8749069543
  O         4.9754071688        4.8191303246        9.9376722341
  O         3.3715651596        7.7817455499        9.8749090268
  O         0.0000857034       -0.0000494231       22.5798526363
  O        -1.6857836503        2.9199619499       22.5798524959
  O        -3.3718349880        5.8395725326       22.5810350630
  O         3.3715685543        0.0003085272       22.5810350268
  O         1.6858882490        2.9199236725       22.5811663375
  O         0.0002675788        5.8395727147       22.5810351428
  O         6.7430511863       -0.0000494361       22.5798525250
  O         5.0572488400        2.9199232337       22.5811660071
  O         3.3715681960        5.8396069230       22.5811663509
  O         1.6866552534        0.9718405703        5.1367095516
  O        -0.0008182669        3.8946301376        5.1367089600
  O        -1.6857838313        6.8130149502        5.1482825025
  O         5.0564807415        0.9718396425        5.1367094989
  O         3.3715681945        3.8931514094        5.1413347120
  O         1.6840943841        6.8129843711        5.1367089971
  O         8.4289208414        0.9732875468        5.1356773326
  O         6.7439546722        3.8946302845        5.1367094940
  O         5.0590411520        6.8129843038        5.1367095421
  O         0.0061204289        1.9501133006       13.8378278178
  O        -1.6857875754        4.8690206870       13.8625874915
  O        -3.3693306746        7.7850112229       13.8625870354
  O         3.3715662191        2.0318237234       13.7626327374
  O         1.7596222208        4.8238088577       13.7626410505
  O        -0.0022372936        7.7850153470       13.8625874909
  O         6.7370191160        1.9501074136       13.8378305233
  O         4.9835242723        4.8238169020       13.7626327142
  O         3.3715647149        7.7792336786       13.8378278259
     188
 i =        9, E =     -6889.1477428076
 Zn        -0.0005984942        0.0003456683        5.6888276497
 Zn        -1.6857835887        2.9191719969        5.6888261415
 Zn        -3.3738080665        5.8384348266        5.6939980350
 Zn         3.3715674286        0.0025862207        5.6939979903
 Zn         1.6829011359        2.9181996440        5.6797597241
 Zn         0.0022402970        5.8384338943        5.6939980912
 Zn         6.7437355017        0.0003455371        5.6888261111
 Zn         5.0602353578        2.9181990751        5.6797593091
 Zn         3.3715678345        5.8430559803        5.6797597228
 Zn         1.6795303705        0.9740966617       14.4254857631
 Zn        -0.0024209339        3.8873385225       14.4254794165
 Zn        -1.6857819396        6.8130139713       14.4409849097
 Zn         5.0636008131        0.9740981483       14.4254819024
 Zn         3.3715789687        3.8931451586       14.5106887426
 Zn         1.6896078329        6.8180182413       14.4254794493
 Zn         8.4289199378        0.9732880633       14.4218160094
 Zn         6.7455588667        3.8873349240       14.4254818368
 Zn         5.0535249971        6.8180265730       14.4254857470
 Zn        -0.0009858517        1.9460060228       23.1487942710
 Zn        -1.6857834619        4.8658051652       23.1488488638
 Zn        -3.3721163482        7.7866195422       23.1488485771
 Zn         3.3715687400        1.9461749680       23.1498313591
 Zn         1.6854375723        4.8666394405       23.1498318103
 Zn         0.0005495660        7.7866196564       23.1488487764
 Zn         6.7441232976        1.9460059296       23.1487942742
 Zn         5.0576996147        4.8666392132       23.1498313526
 Zn         3.3715686702        7.7874417040       23.1487941733
 In        -0.0000537198        0.0000310330        0.0516686025
 In        -1.6857839034        2.9198012047        0.0516682946
 In        -3.3712671557        5.8399007667        0.0517274450
 In         3.3715682190       -0.0003474201        0.0517274923
 In         1.6857200337        2.9198264116        0.0510996121
 In        -0.0003006893        5.8399007950        0.0517276006
 In         6.7431902435        0.0000310357        0.0516681729
 In         5.0574164333        2.9198264597        0.0510993010
 In         3.3715682799        5.8398012531        0.0510996011
 In         1.6769710616        0.9736514894        8.7729518207
 In        -0.0040896922        3.8853407208        8.7729557250
 In        -1.6857832739        6.8130146028        8.7660465871
 In         5.0661620355        0.9736497446        8.7729517981
 In         3.3715704769        3.8931500469        8.6912280748
 In         1.6905033904        6.8204621563        8.7729558093
 In         8.4289198720        0.9732880435        8.7643141863
 In         6.7472277919        3.8853408109        8.7729518777
 In         5.0526306749        6.8204654406        8.7729518385
 In         0.0005151651        1.9468731929       17.5048817746
 In        -1.6857845673        4.8664178732       17.5038343857
 In        -3.3715854218        7.7863129417       17.5038361926
 In         3.3715666783        1.9409610275       17.5375267037
 In         1.6809201681        4.8692475149       17.5375261155
 In         0.0000182869        7.7863141193       17.5038343944
 In         6.7426195813        1.9468739690       17.5048822345
 In         5.0622139011        4.8692478847       17.5375267098
 In         3.3715680834        7.7857081240       17.5048816798
 Ga         0.0000187435       -0.0000108674       20.5788008747
 Ga        -1.6857841006        2.9198855215       20.5788005543
 Ga        -3.3708154383        5.8401615442       20.5822631716
 Ga         3.3715681856       -0.0008690396       20.5822631696
 Ga         1.6846970783        2.9192370565       20.5843754530
 Ga        -0.0007539565        5.8401624441       20.5822632159
 Ga         6.7431170844       -0.0000109509       20.5788005744
 Ga         5.0584391851        2.9192359527       20.5843750301
 Ga         3.3715671497        5.8409817671       20.5843754465
 Ga         1.6858972645        0.9725190373        3.1235481460
 Ga        -0.0006101713        3.8936342960        3.1235479180
 Ga        -1.6857844297        6.8130152250        3.1252218995
 Ga         5.0572390059        0.9725190571        3.1235480996
 Ga         3.3715676991        3.8931516502        3.1231089455
 Ga         1.6850607553        6.8133020046        3.1235479249
 Ga         8.4289201801        0.9732877817        3.1238756748
 Ga         6.7437453649        3.8936337350        3.1235481122
 Ga         5.0580744911        6.8133013272        3.1235481265
 Ga        -0.0038957998        1.9443249978       11.8467265017
 Ga        -1.6857759173        4.8737574167       11.8514315060
 Ga        -3.3652252062        7.7826408676       11.8514321911
 Ga         3.3715575580        1.8309506422       11.8393643546
 Ga         1.5856690547        4.9242407249       11.8393681558
 Ga        -0.0063335620        7.7826368939       11.8514315268
 Ga         6.7470259554        1.9443299388       11.8467260163
 Ga         5.1574810564        4.9242609404       11.8393643931
 Ga         3.3715693706        7.7908021186       11.8467265037
  O         0.0000696721       -0.0000402585        3.1547768685
  O        -1.6857838457        2.9199428876        3.1547772228
  O        -3.3699685877        5.8406499154        3.1559754279
  O         3.3715687149       -0.0018465981        3.1559754527
  O         1.6861960712        2.9201013406        3.1570549171
  O        -0.0015990613        5.8406504062        3.1559751457
  O         6.7430675169       -0.0000398672        3.1547772537
  O         5.0569406223        2.9201011821        3.1570551681
  O         3.3715682046        5.8392515035        3.1570549288
  O         1.6740783514        0.9457273893       11.8757342673
  O        -0.0297088674        3.8967871485       11.8757366343
  O        -1.6857831474        6.8130145355       11.8757673289
  O         5.0690522736        0.9457304016       11.8757357432
  O         1.6677810481        6.8369258820       11.8757365724
  O         8.4289163561        0.9732900796       11.8753431281
  O         6.7728517536        3.8967976080       11.8757357187
  O         5.0753673642        6.8369327398       11.8757343058
  O        -0.0016590079        1.9456176222       20.5946483295
  O        -1.6857837330        4.8657123367       20.5958621891
  O        -3.3721966495        7.7866658410       20.5958622104
  O         3.3715683336        1.9463906839       20.5932032148
  O         1.6856232491        4.8665321532       20.5932029745
  O         0.0006297504        7.7866661558       20.5958621872
  O         6.7447965728        1.9456170954       20.5946480604
  O         5.0575125005        4.8665316331       20.5932032239
  O         3.3715683118        7.7882187471       20.5946483805
  O        -0.0019327233        0.0011158237        7.6996147672
  O        -1.6857838994        2.9176328273        7.6996132448
  O        -3.3948776579        5.8262766139        7.7192029569
  O         3.3715617608        0.0269118591        7.7192028668
  O         1.6816841282        2.9174976406        7.6998952755
  O         0.0233096344        5.8262693495        7.7192035040
  O         6.7450680629        0.0011151969        7.6996132409
  O         5.0614526909        2.9174961288        7.6998957013
  O         3.3715670371        5.8444607570        7.6998953268
  O         1.6968436594        0.9815187573       16.4114798613
  O         0.0126644976        3.8986130912       16.4114758186
  O        -1.6857832233        6.8130145863       16.4276041495
  O         5.0462880855        0.9815254254       16.4114770309
  O         3.3715694583        3.8931506399       16.4544397052
  O         1.6873863291        6.7993164951       16.4114757998
  O         8.4289198846        0.9732880610       16.4136311913
  O         6.7304701890        3.8986143470       16.4114770043
  O         5.0557537149        6.7993217036       16.4114798268
  O         0.0000877664        1.9466260401       25.1478574352
  O        -1.6857837341        4.8662082853       25.1479904375
  O        -3.3717678076        7.7864182392       25.1479903259
  O         3.3715683276        1.9465657383       25.1480391920
  O         1.6857757472        4.8664440860       25.1480394521
  O         0.0002002062        7.7864181576       25.1479903851
  O         6.7430489559        1.9466260746       25.1478573755
  O         5.0573608553        4.8664440695       25.1480391915
  O         3.3715683998        7.7862017618       25.1478573705
  O         0.0019466475       -0.0011238774       18.5856584622
  O        -1.6857842993        2.9221110902       18.5856574757
  O        -3.3685173271        5.8414879146       18.5945011765
  O         3.3715686481       -0.0035223177       18.5945011780
  O         1.6812628441        2.9172549981       18.5975335682
  O        -0.0030525609        5.8414895923       18.5945009743
  O         6.7411896509       -0.0011234941       18.5856574822
  O         5.0618730178        2.9172534762       18.5975338390
  O         3.3715666289        5.8449470690       18.5975335289
  O         1.6860901556        0.9736638230        1.1460244702
  O         0.0004785474        3.8932283379        1.1460244999
  O        -1.6857840983        6.8130151088        1.1456254646
  O         5.0570461868        0.9736639123        1.1460245120
  O         3.3715682067        3.8931514173        1.1459135982
  O         1.6859567304        6.8125622215        1.1460245003
  O         8.4289201864        0.9732878247        1.1454974948
  O         6.7426575162        3.8932284383        1.1460244915
  O         5.0571795871        6.8125620155        1.1460244085
  O         0.0039752932        1.9488741701        9.8750354941
  O        -1.6857859877        4.8695765866        9.8664021913
  O        -3.3688460779        7.7847313615        9.8664030751
  O         3.3715625380        2.0432263244        9.9386843907
  O         1.7695054174        4.8181026405        9.9386828228
  O        -0.0027180442        7.7847360099        9.8664022581
  O         6.7391593604        1.9488716919        9.8750344651
  O         4.9736474643        4.8181186436        9.9386845115
  O         3.3715652135        7.7817109767        9.8750355108
  O         0.0000706460       -0.0000407265       22.5798245351
  O        -1.6857836338        2.9199445492       22.5798245176
  O        -3.3718304861        5.8395751627       22.5809070247
  O         3.3715685302        0.0003033133       22.5809069912
  O         1.6858589675        2.9199067525       22.5810654483
  O         0.0002630541        5.8395753302       22.5809070524
  O         6.7430662719       -0.0000407410       22.5798245438
  O         5.0572781370        2.9199063174       22.5810651969
  O         3.3715682069        5.8396407416       22.5810654521
  O         1.6866516829        0.9719638560        5.1369669223
  O        -0.0007131629        3.8945653280        5.1369664595
  O        -1.6857837627        6.8130149131        5.1484994185
  O         5.0564843843        0.9719634253        5.1369672865
  O         3.3715682126        3.8931514045        5.1415451236
  O         1.6842030719        6.8129257589        5.1369664911
  O         8.4289206678        0.9732876575        5.1356221132
  O         6.7438492913        3.8945652520        5.1369672888
  O         5.0589325968        6.8129257561        5.1369669176
  O         0.0063062547        1.9502202432       13.8373608786
  O        -1.6857856151        4.8691962143       13.8631124519
  O        -3.3691769172        7.7849224469       13.8631139012
  O         3.3715619180        2.0328901204       13.7609738061
  O         1.7605561316        4.8232696565       13.7609817522
  O        -0.0023882942        7.7849259058       13.8631124371
  O         6.7368301137        1.9502165352       13.8373618496
  O         4.9825985882        4.8232874343       13.7609738111
  O         3.3715650143        7.7790192807       13.8373608922
     188
 i =       10, E =     -6889.1477589301
 Zn        -0.0006984627        0.0004033996        5.6885212399
 Zn        -1.6857840685        2.9190572959        5.6885253447
 Zn        -3.3738514330        5.8384089512        5.6937551401
 Zn         3.3715681764        0.0026367254        5.6937550853
 Zn         1.6829936820        2.9182532963        5.6798853938
 Zn         0.0022843435        5.8384084809        5.6937564152
 Zn         6.7438346151        0.0004033204        5.6885252933
 Zn         5.0601428075        2.9182525099        5.6798822930
 Zn         3.3715676442        5.8429490151        5.6798853917
 Zn         1.6790971159        0.9737224447       14.4255281614
 Zn        -0.0029644287        3.8871380497       14.4255296375
 Zn        -1.6857866257        6.8130167134       14.4424067611
 Zn         5.0640399061        0.9737160848       14.4255240959
 Zn         3.3715652770        3.8931530798       14.5088967879
 Zn         1.6895097651        6.8185890937       14.4255296001
 Zn         8.4289161978        0.9732902240       14.4215621853
 Zn         6.7461092536        3.8871457562       14.4255239839
 Zn         5.0536324218        6.8185887936       14.4255281075
 Zn        -0.0010104166        1.9459919034       23.1489186115
 Zn        -1.6857833740        4.8658197488       23.1488227106
 Zn        -3.3721037547        7.7866122685       23.1488224624
 Zn         3.3715687715        1.9461381155       23.1498552525
 Zn         1.6854056086        4.8666579024       23.1498555041
 Zn         0.0005370050        7.7866123035       23.1488225990
 Zn         6.7441479070        1.9459917340       23.1489186681
 Zn         5.0577315390        4.8666576169       23.1498552276
 Zn         3.3715686283        7.7874700445       23.1489185047
 In        -0.0000085804        0.0000049794        0.0519560615
 In        -1.6857839812        2.9198533577        0.0519559076
 In        -3.3712735546        5.8398969674        0.0518934664
 In         3.3715682973       -0.0003399821        0.0518935064
 In         1.6857137844        2.9198227806        0.0514811760
 In        -0.0002942906        5.8398970797        0.0518937052
 In         6.7431450329        0.0000050251        0.0519557657
 In         5.0574227666        2.9198227925        0.0514811814
 In         3.3715682907        5.8398084760        0.0514811533
 In         1.6768231108        0.9737829579        8.7728904934
 In        -0.0040495320        3.8851365915        8.7728882018
 In        -1.6857868165        6.8130166329        8.7658557019
 In         5.0663130412        0.9737795825        8.7728908666
 In         3.3715688258        3.8931510026        8.6906412146
 In         1.6907002536        6.8205294355        8.7728882657
 In         8.4289151576        0.9732907356        8.7644190258
 In         6.7471908236        3.8851451230        8.7728909827
 In         5.0524428348        6.8205278201        8.7728905113
 In         0.0006522520        1.9469528249       17.5048033149
 In        -1.6857839660        4.8664318418       17.5043752678
 In        -3.3715730630        7.7863057986       17.5043812735
 In         3.3715669944        1.9412999696       17.5365928939
 In         1.6812145231        4.8690775855       17.5365894948
 In         0.0000064925        7.7863066088       17.5043753114
 In         6.7424813083        1.9469538118       17.5048011812
 In         5.0619205310        4.8690781524       17.5365928769
 In         3.3715676636        7.7855495870       17.5048032063
 Ga        -0.0000020144        0.0000011152       20.5788770515
 Ga        -1.6857841099        2.9198618267       20.5788766950
 Ga        -3.3708974220        5.8401141291       20.5822346330
 Ga         3.3715682571       -0.0007743315       20.5822346383
 Ga         1.6847903928        2.9192910836       20.5845659841
 Ga        -0.0006716099        5.8401148972       20.5822335736
 Ga         6.7431375978        0.0000009044       20.5788767111
 Ga         5.0583459009        2.9192898024       20.5845661933
 Ga         3.3715670195        5.8408739365       20.5845659692
 Ga         1.6859080477        0.9725674909        3.1233515323
 Ga        -0.0005627353        3.8936194395        3.1233515236
 Ga        -1.6857842255        6.8130151110        3.1249160579
 Ga         5.0572281298        0.9725676137        3.1233516103
 Ga         3.3715677234        3.8931516356        3.1229550494
 Ga         1.6850973431        6.8132683578        3.1233515246
 Ga         8.4289199953        0.9732878969        3.1235673670
 Ga         6.7436978793        3.8936188835        3.1233516252
 Ga         5.0580379241        6.8132677666        3.1233515093
 Ga        -0.0039846733        1.9443034451       11.8464617497
 Ga        -1.6858116296        4.8739124535       11.8512230267
 Ga        -3.3650699314        7.7825511774       11.8512201049
 Ga         3.3715533154        1.8300597204       11.8388622764
 Ga         1.5849318368        4.9246663485       11.8388630729
 Ga        -0.0064856506        7.7825902874       11.8512230307
 Ga         6.7471342452        1.9442674232       11.8464605549
 Ga         5.1582505086        4.9247100922       11.8388623072
 Ga         3.3715436138        7.7908898852       11.8464617598
  O         0.0001711358       -0.0000988340        3.1553216617
  O        -1.6857838805        2.9200602294        3.1553217918
  O        -3.3699423252        5.8406650255        3.1565997427
  O         3.3715687615       -0.0018768912        3.1565997597
  O         1.6861781154        2.9200909125        3.1573504174
  O        -0.0016251978        5.8406654975        3.1565992096
  O         6.7429658739       -0.0000985053        3.1553218173
  O         5.0569585269        2.9200908438        3.1573507548
  O         3.3715682567        5.8392722583        3.1573504031
  O         1.6740365298        0.9444942462       11.8753228296
  O        -0.0307893431        3.8974115567       11.8753214674
  O        -1.6857666705        6.8130050171       11.8755263903
  O         5.0690880148        0.9445239754       11.8753232203
  O         1.6667001098        6.8375493858       11.8753214188
  O         8.4289342920        0.9732797432       11.8750052655
  O         6.7739144408        3.8973698746       11.8753232101
  O         5.0764143535        6.8375855287       11.8753228671
  O        -0.0016841918        1.9456033431       20.5944331767
  O        -1.6857836257        4.8655973361       20.5957607037
  O        -3.3722962396        7.7867233283       20.5957603907
  O         3.3715682552        1.9464584999       20.5934834485
  O         1.6856820915        4.8664981934       20.5934839582
  O         0.0007294088        7.7867235539       20.5957607177
  O         6.7448219570        1.9456024364       20.5944332092
  O         5.0574537315        4.8664978032       20.5934834493
  O         3.3715680781        7.7882476845       20.5944332308
  O        -0.0018065988        0.0010429978        7.6998263987
  O        -1.6857820986        2.9177861551        7.6998290415
  O        -3.3957293015        5.8257829916        7.7195663044
  O         3.3715634114        0.0278962022        7.7195662076
  O         1.6810679910        2.9171411823        7.6997306664
  O         0.0241657465        5.8257750541        7.7195715933
  O         6.7449361730        0.0010369551        7.6998290227
  O         5.0620736769        2.9171375976        7.6997304623
  O         3.3715676559        5.8451725753        7.6997307173
  O         1.6970205325        0.9816855222       16.4107831249
  O         0.0129001337        3.8986837078       16.4107853473
  O        -1.6857827189        6.8130143080       16.4285730268
  O         5.0461089726        0.9816922586       16.4107812055
  O         3.3715705518        3.8931500450       16.4514640317
  O         1.6874430041        6.7990771297       16.4107852895
  O         8.4289190215        0.9732885645       16.4130774976
  O         6.7302361423        3.8986860815       16.4107811675
  O         5.0556977194        6.7990851422       16.4107830744
  O         0.0000765550        1.9466196097       25.1479875556
  O        -1.6857836924        4.8662066438       25.1479919342
  O        -3.3717692198        7.7864190494       25.1479918353
  O         3.3715683859        1.9465715610       25.1480570515
  O         1.6857807306        4.8664412164       25.1480572324
  O         0.0002016599        7.7864189418       25.1479918872
  O         6.7430601276        1.9466196302       25.1479874797
  O         5.0573558406        4.8664411149       25.1480570377
  O         3.3715683684        7.7862146861       25.1479874873
  O         0.0018777229       -0.0010840865       18.5852577185
  O        -1.6857854015        2.9220335458       18.5852554585
  O        -3.3689127059        5.8412578075       18.5944617853
  O         3.3715702336       -0.0030648527       18.5944618014
  O         1.6816158510        2.9174596408       18.5971631705
  O        -0.0026551844        5.8412601582       18.5944602163
  O         6.7412562335       -0.0010837864       18.5852554681
  O         5.0615215355        2.9174563944       18.5971646899
  O         3.3715658969        5.8445390263       18.5971631276
  O         1.6861282794        0.9736385985        1.1460428847
  O         0.0004758389        3.8932738822        1.1460428769
  O        -1.6857841678        6.8130151604        1.1456706047
  O         5.0570080490        0.9736387011        1.1460429628
  O         3.3715681325        3.8931514735        1.1458111911
  O         1.6859159291        6.8125418033        1.1460428661
  O         8.4289201828        0.9732878278        1.1456075252
  O         6.7426602713        3.8932740732        1.1460429412
  O         5.0572204934        6.8125416085        1.1460428119
  O         0.0040988490        1.9489389122        9.8752763606
  O        -1.6857739567        4.8696259782        9.8655782888
  O        -3.3688093783        7.7847101564        9.8655750681
  O         3.3715739467        2.0462844616        9.9402432273
  O         1.7721220898        4.8165918363        9.9402434982
  O        -0.0027548034        7.7847008692        9.8655783567
  O         6.7390332176        1.9489445001        9.8752758599
  O         4.9710047444        4.8165797023        9.9402433215
  O         3.3715708939        7.7815715649        9.8752763813
  O         0.0000279420       -0.0000160581       22.5797801837
  O        -1.6857836954        2.9198952035       22.5797803321
  O        -3.3718024811        5.8395913581       22.5806888911
  O         3.3715685142        0.0002709699       22.5806888625
  O         1.6857662877        2.9198530720       22.5809443336
  O         0.0002349124        5.8395915864       22.5806883557
  O         6.7431089803       -0.0000160031       22.5797803523
  O         5.0573709605        2.9198527191       22.5809442522
  O         3.3715683465        5.8397478487       22.5809443254
  O         1.6866472892        0.9721174689        5.1373057125
  O        -0.0005831479        3.8944839443        5.1373056548
  O        -1.6857836035        6.8130148207        5.1487473696
  O         5.0564895836        0.9721169105        5.1373060943
  O         3.3715680697        3.8931515004        5.1417868022
  O         1.6843385764        6.8128538686        5.1373056833
  O         8.4289196674        0.9732882385        5.1353638316
  O         6.7437189734        3.8944840276        5.1373061066
  O         5.0587973666        6.8128527607        5.1373057165
  O         0.0066498877        1.9504112034       13.8362734816
  O        -1.6857748541        4.8695441257       13.8640386290
  O        -3.3688806015        7.7847513301       13.8640383161
  O         3.3715665692        2.0352028643       13.7575176171
  O         1.7625411218        4.8221235502       13.7575146110
  O        -0.0026841497        7.7847426372       13.8640386031
  O         6.7364820577        1.9504174882       13.8362725225
  O         4.9805979820        4.8221269902       13.7575176073
  O         3.3715714533        7.7786262163       13.8362735131
     188
 i =       11, E =     -6889.1477598230
 Zn        -0.0006832336        0.0003946029        5.6885593268
 Zn        -1.6857838570        2.9190749345        5.6885588440
 Zn        -3.3738704199        5.8383982399        5.6937862667
 Zn         3.3715679536        0.0026585259        5.6937862120
 Zn         1.6829057441        2.9182023288        5.6798696581
 Zn         0.0023032575        5.8383975598        5.6937881782
 Zn         6.7438194071        0.0003943078        5.6885588108
 Zn         5.0602308996        2.9182016510        5.6798706932
 Zn         3.3715678142        5.8430506577        5.6798696572
 Zn         1.6790033262        0.9736632917       14.4254086221
 Zn        -0.0030630285        3.8870961601       14.4254064856
 Zn        -1.6857813451        6.8130136477       14.4425982120
 Zn         5.0641313124        0.9736661554       14.4254081497
 Zn         3.3715718650        3.8931492560       14.5084920824
 Zn         1.6894967206        6.8186954349       14.4254064595
 Zn         8.4289210700        0.9732874111       14.4215254491
 Zn         6.7461981932        3.8870915514       14.4254080550
 Zn         5.0536367611        6.8186996098       14.4254085857
 Zn        -0.0010023911        1.9459964560       23.1489722887
 Zn        -1.6857832983        4.8658256605       23.1488552770
 Zn        -3.3720987505        7.7866093767       23.1488551404
 Zn         3.3715686510        1.9461390577       23.1498749372
 Zn         1.6854064301        4.8666574322       23.1498750486
 Zn         0.0005319196        7.7866092767       23.1488551711
 Zn         6.7441400171        1.9459962865       23.1489723384
 Zn         5.0577306631        4.8666572535       23.1498749161
 Zn         3.3715686945        7.7874608148       23.1489721779
 In        -0.0000106773        0.0000061795        0.0518698249
 In        -1.6857838328        2.9198509522        0.0518698033
 In        -3.3712799402        5.8398933761        0.0517877730
 In         3.3715682255       -0.0003326687        0.0517878217
 In         1.6857162064        2.9198242858        0.0513814812
 In        -0.0002878094        5.8398933496        0.0517880865
 In         6.7431471970        0.0000060928        0.0518696663
 In         5.0574201862        2.9198242860        0.0513813601
 In         3.3715682007        5.8398056337        0.0513814600
 In         1.6767738158        0.9737195346        8.7727890487
 In        -0.0041277098        3.8851369401        8.7727902037
 In        -1.6857789582        6.8130120933        8.7656169344
 In         5.0663585645        0.9737207961        8.7727873199
 In         3.3715714090        3.8931494967        8.6901742816
 In         1.6906608445        6.8205969534        8.7727902690
 In         8.4289207494        0.9732875220        8.7642673963
 In         6.7472645102        3.8851350740        8.7727874223
 In         5.0524731203        6.8206022297        8.7727890567
 In         0.0006561894        1.9469541210       17.5048435946
 In        -1.6857842769        4.8664245522       17.5045541137
 In        -3.3715800300        7.7863098290       17.5045585118
 In         3.3715668816        1.9413123467       17.5364223251
 In         1.6812257296        4.8690711180       17.5364220787
 In         0.0000126563        7.7863105311       17.5045541581
 In         6.7424774268        1.9469560458       17.5048407718
 In         5.0619097478        4.8690720609       17.5364223118
 In         3.3715685031        7.7855455233       17.5048434856
 Ga        -0.0000034412        0.0000019411       20.5787923183
 Ga        -1.6857842475        2.9198602818       20.5787915380
 Ga        -3.3709179302        5.8401021735       20.5821224103
 Ga         3.3715683578       -0.0007505910       20.5821224139
 Ga         1.6847962842        2.9192944170       20.5844420298
 Ga        -0.0006510354        5.8401030225       20.5821213240
 Ga         6.7431388664        0.0000017911       20.5787915547
 Ga         5.0583401347        2.9192931350       20.5844415939
 Ga         3.3715670724        5.8408671719       20.5844420171
 Ga         1.6859131640        0.9725586913        3.1234428934
 Ga        -0.0005679899        3.8936281765        3.1234430445
 Ga        -1.6857842087        6.8130151017        3.1250417899
 Ga         5.0572232052        0.9725585444        3.1234429064
 Ga         3.3715676129        3.8931517047        3.1230760109
 Ga         1.6850871493        6.8132685436        3.1234430459
 Ga         8.4289198294        0.9732880015        3.1236820108
 Ga         6.7437032605        3.8936276875        3.1234429221
 Ga         5.0580481019        6.8132677372        3.1234428763
 Ga        -0.0040142533        1.9442518947       11.8465333204
 Ga        -1.6857747909        4.8739420886       11.8513014055
 Ga        -3.3650734901        7.7825532643       11.8513015403
 Ga         3.3715610520        1.8298737012       11.8388194824
 Ga         1.5847183759        4.9247895836       11.8388189632
 Ga        -0.0064929022        7.7825435898       11.8513014168
 Ga         6.7471407384        1.9442636688       11.8465336433
 Ga         5.1584154535        4.9247963826       11.8388195002
 Ga         3.3715734634        7.7909412543       11.8465333229
  O         0.0001853758       -0.0001070531        3.1551467954
  O        -1.6857838329        2.9200767332        3.1551462801
  O        -3.3699471677        5.8406621890        3.1564508101
  O         3.3715688009       -0.0018712763        3.1564508371
  O         1.6861804130        2.9200923376        3.1572433433
  O        -0.0016202399        5.8406626367        3.1564506626
  O         6.7429516184       -0.0001067948        3.1551463346
  O         5.0569561800        2.9200921910        3.1572436044
  O         3.3715681693        5.8392695609        3.1572433474
  O         1.6739598074        0.9444165974       11.8752226563
  O        -0.0309057846        3.8973351963       11.8752261645
  O        -1.6857884705        6.8130176063       11.8754083318
  O         5.0691727597        0.9444153700       11.8752239492
  O         1.6667080056        6.8376883959       11.8752261121
  O         8.4289118643        0.9732926794       11.8749553606
  O         6.7740508742        3.8973507933       11.8752239394
  O         5.0764432656        6.8376907935       11.8752226986
  O        -0.0016744156        1.9456091164       20.5945013575
  O        -1.6857835656        4.8655857519       20.5958335688
  O        -3.3723062647        7.7867291173       20.5958327554
  O         3.3715683061        1.9464922268       20.5935970935
  O         1.6857113525        4.8664812978       20.5935976738
  O         0.0007394687        7.7867292967       20.5958335802
  O         6.7448121520        1.9456080955       20.5945019219
  O         5.0574245462        4.8664809023       20.5935970956
  O         3.3715679702        7.7882363352       20.5945014136
  O        -0.0018467644        0.0010661843        7.6998670645
  O        -1.6857832822        2.9177347662        7.6998667113
  O        -3.3957907019        5.8257495288        7.7196372497
  O         3.3715616922        0.0279660978        7.7196371520
  O         1.6810962755        2.9171560160        7.6996950973
  O         0.0242267312        5.8257398377        7.7196388877
  O         6.7449800785        0.0010636641        7.6998667074
  O         5.0620453643        2.9171539420        7.6996969046
  O         3.3715689498        5.8451406530        7.6996951536
  O         1.6970010274        0.9816482050       16.4106743888
  O         0.0128575815        3.8986842381       16.4106728965
  O        -1.6857833095        6.8130146504       16.4286955821
  O         5.0461291561        0.9816544759       16.4106736131
  O         3.3715696291        3.8931505707       16.4509572597
  O         1.6874212685        6.7991137167       16.4106728531
  O         8.4289189486        0.9732886010       16.4129953753
  O         6.7302789560        3.8986874881       16.4106735914
  O         5.0557202929        6.7991206933       16.4106743531
  O         0.0000732717        1.9466176486       25.1480283932
  O        -1.6857837422        4.8662150001       25.1480225384
  O        -3.3717620122        7.7864148960       25.1480224298
  O         3.3715683968        1.9465767479       25.1480854583
  O         1.6857852797        4.8664385848       25.1480854986
  O         0.0001943920        7.7864148104       25.1480224910
  O         6.7430634048        1.9466177315       25.1480284441
  O         5.0573513470        4.8664385030       25.1480854444
  O         3.3715684191        7.7862185161       25.1480283166
  O         0.0018723719       -0.0010810029       18.5851246555
  O        -1.6857852435        2.9220258012       18.5851216697
  O        -3.3689486742        5.8412388694       18.5943719424
  O         3.3715686531       -0.0030242321       18.5943719576
  O         1.6816365786        2.9174694234       18.5969518142
  O        -0.0026206422        5.8412402196       18.5943707396
  O         6.7412630359       -0.0010800451       18.5851216821
  O         5.0615001474        2.9174687531       18.5969520832
  O         3.3715677956        5.8445161940       18.5969517756
  O         1.6861295125        0.9736325165        1.1461214145
  O         0.0004712106        3.8932780641        1.1461215513
  O        -1.6857841207        6.8130151185        1.1457691646
  O         5.0570067731        0.9736327505        1.1461213383
  O         3.3715682141        3.8931514200        1.1459019419
  O         1.6859100002        6.8125437229        1.1461215483
  O         8.4289202338        0.9732878185        1.1457141458
  O         6.7426647916        3.8932781617        1.1461213170
  O         5.0572263776        6.8125435893        1.1461213558
  O         0.0041240749        1.9489617981        9.8753580410
  O        -1.6857917103        4.8697707498        9.8656482556
  O        -3.3686738855        7.7846319259        9.8656463677
  O         3.3715674844        2.0459316337        9.9401201748
  O         1.7718342591        4.8167580452        9.9401198597
  O        -0.0028890537        7.7846438540        9.8656483305
  O         6.7390156305        1.9489546569        9.8753584092
  O         4.9713070813        4.8167617283        9.9401202506
  O         3.3715636915        7.7815382874        9.8753580506
  O         0.0000191404       -0.0000109788       22.5797006703
  O        -1.6857835564        2.9198850520       22.5797008215
  O        -3.3717831113        5.8396026356       22.5805993435
  O         3.3715684319        0.0002485556       22.5805993149
  O         1.6857413770        2.9198387091       22.5808792435
  O         0.0002155826        5.8396027445       22.5805988232
  O         6.7431178368       -0.0000110517       22.5797008422
  O         5.0573957518        2.9198384074       22.5808788845
  O         3.3715683322        5.8397766035       22.5808792347
  O         1.6866430743        0.9720611739        5.1373396868
  O        -0.0006330324        3.8945093538        5.1373397522
  O        -1.6857831711        6.8130145729        5.1488649149
  O         5.0564929848        0.9720615583        5.1373401590
  O         3.3715686978        3.8931511409        5.1418697448
  O         1.6842916290        6.8128843621        5.1373397786
  O         8.4289202298        0.9732878925        5.1354417604
  O         6.7437686204        3.8945087495        5.1373401715
  O         5.0588440139        6.8128845527        5.1373396915
  O         0.0066145797        1.9503977279       13.8362147480
  O        -1.6857867686        4.8695721925       13.8641011787
  O        -3.3688482384        7.7847326474       13.8641035954
  O         3.3715643845        2.0352801503       13.7575143309
  O         1.7626164456        4.8220800704       13.7575131672
  O        -0.0027144338        7.7847389118       13.8641011550
  O         6.7365226473        1.9503940476       13.8362146260
  O         4.9805299354        4.8220902379       13.7575143112
  O         3.3715654611        7.7786635277       13.8362147742
     188
 i =       12, E =     -6889.1477637397
 Zn        -0.0006832336        0.0003946029        5.6885593268
 Zn        -1.6857838570        2.9190749345        5.6885588440
 Zn        -3.3738704199        5.8383982399        5.6937862667
 Zn         3.3715679536        0.0026585259        5.6937862120
 Zn         1.6829057441        2.9182023288        5.6798696581
 Zn         0.0023032575        5.8383975598        5.6937881782
 Zn         6.7438194071        0.0003943078        5.6885588108
 Zn         5.0602308996        2.9182016510        5.6798706932
 Zn         3.3715678142        5.8430506577        5.6798696572
 Zn         1.6790033262        0.9736632917       14.4254086221
 Zn        -0.0030630285        3.8870961601       14.4254064856
 Zn        -1.6857813451        6.8130136477       14.4425982120
 Zn         5.0641313124        0.9736661554       14.4254081497
 Zn         3.3715718650        3.8931492560       14.5084920824
 Zn         1.6894967206        6.8186954349       14.4254064595
 Zn         8.4289210700        0.9732874111       14.4215254491
 Zn         6.7461981932        3.8870915514       14.4254080550
 Zn         5.0536367611        6.8186996098       14.4254085857
 Zn        -0.0010023911        1.9459964560       23.1489722887
 Zn        -1.6857832983        4.8658256605       23.1488552770
 Zn        -3.3720987505        7.7866093767       23.1488551404
 Zn         3.3715686510        1.9461390577       23.1498749372
 Zn         1.6854064301        4.8666574322       23.1498750486
 Zn         0.0005319196        7.7866092767       23.1488551711
 Zn         6.7441400171        1.9459962865       23.1489723384
 Zn         5.0577306631        4.8666572535       23.1498749161
 Zn         3.3715686945        7.7874608148       23.1489721779
 In        -0.0000106773        0.0000061795        0.0518698249
 In        -1.6857838328        2.9198509522        0.0518698033
 In        -3.3712799402        5.8398933761        0.0517877730
 In         3.3715682255       -0.0003326687        0.0517878217
 In         1.6857162064        2.9198242858        0.0513814812
 In        -0.0002878094        5.8398933496        0.0517880865
 In         6.7431471970        0.0000060928        0.0518696663
 In         5.0574201862        2.9198242860        0.0513813601
 In         3.3715682007        5.8398056337        0.0513814600
 In         1.6767738158        0.9737195346        8.7727890487
 In        -0.0041277098        3.8851369401        8.7727902037
 In        -1.6857789582        6.8130120933        8.7656169344
 In         5.0663585645        0.9737207961        8.7727873199
 In         3.3715714090        3.8931494967        8.6901742816
 In         1.6906608445        6.8205969534        8.7727902690
 In         8.4289207494        0.9732875220        8.7642673963
 In         6.7472645102        3.8851350740        8.7727874223
 In         5.0524731203        6.8206022297        8.7727890567
 In         0.0006561894        1.9469541210       17.5048435946
 In        -1.6857842769        4.8664245522       17.5045541137
 In        -3.3715800300        7.7863098290       17.5045585118
 In         3.3715668816        1.9413123467       17.5364223251
 In         1.6812257296        4.8690711180       17.5364220787
 In         0.0000126563        7.7863105311       17.5045541581
 In         6.7424774268        1.9469560458       17.5048407718
 In         5.0619097478        4.8690720609       17.5364223118
 In         3.3715685031        7.7855455233       17.5048434856
 Ga        -0.0000034412        0.0000019411       20.5787923183
 Ga        -1.6857842475        2.9198602818       20.5787915380
 Ga        -3.3709179302        5.8401021735       20.5821224103
 Ga         3.3715683578       -0.0007505910       20.5821224139
 Ga         1.6847962842        2.9192944170       20.5844420298
 Ga        -0.0006510354        5.8401030225       20.5821213240
 Ga         6.7431388664        0.0000017911       20.5787915547
 Ga         5.0583401347        2.9192931350       20.5844415939
 Ga         3.3715670724        5.8408671719       20.5844420171
 Ga         1.6859131640        0.9725586913        3.1234428934
 Ga        -0.0005679899        3.8936281765        3.1234430445
 Ga        -1.6857842087        6.8130151017        3.1250417899
 Ga         5.0572232052        0.9725585444        3.1234429064
 Ga         3.3715676129        3.8931517047        3.1230760109
 Ga         1.6850871493        6.8132685436        3.1234430459
 Ga         8.4289198294        0.9732880015        3.1236820108
 Ga         6.7437032605        3.8936276875        3.1234429221
 Ga         5.0580481019        6.8132677372        3.1234428763
 Ga        -0.0040142533        1.9442518947       11.8465333204
 Ga        -1.6857747909        4.8739420886       11.8513014055
 Ga        -3.3650734901        7.7825532643       11.8513015403
 Ga         3.3715610520        1.8298737012       11.8388194824
 Ga         1.5847183759        4.9247895836       11.8388189632
 Ga        -0.0064929022        7.7825435898       11.8513014168
 Ga         6.7471407384        1.9442636688       11.8465336433
 Ga         5.1584154535        4.9247963826       11.8388195002
 Ga         3.3715734634        7.7909412543       11.8465333229
  O         0.0001853758       -0.0001070531        3.1551467954
  O        -1.6857838329        2.9200767332        3.1551462801
  O        -3.3699471677        5.8406621890        3.1564508101
  O         3.3715688009       -0.0018712763        3.1564508371
  O         1.6861804130        2.9200923376        3.1572433433
  O        -0.0016202399        5.8406626367        3.1564506626
  O         6.7429516184       -0.0001067948        3.1551463346
  O         5.0569561800        2.9200921910        3.1572436044
  O         3.3715681693        5.8392695609        3.1572433474
  O         1.6739598074        0.9444165974       11.8752226563
  O        -0.0309057846        3.8973351963       11.8752261645
  O        -1.6857884705        6.8130176063       11.8754083318
  O         5.0691727597        0.9444153700       11.8752239492
  O         1.6667080056        6.8376883959       11.8752261121
  O         8.4289118643        0.9732926794       11.8749553606
  O         6.7740508742        3.8973507933       11.8752239394
  O         5.0764432656        6.8376907935       11.8752226986
  O        -0.0016744156        1.9456091164       20.5945013575
  O        -1.6857835656        4.8655857519       20.5958335688
  O        -3.3723062647        7.7867291173       20.5958327554
  O         3.3715683061        1.9464922268       20.5935970935
  O         1.6857113525        4.8664812978       20.5935976738
  O         0.0007394687        7.7867292967       20.5958335802
  O         6.7448121520        1.9456080955       20.5945019219
  O         5.0574245462        4.8664809023       20.5935970956
  O         3.3715679702        7.7882363352       20.5945014136
  O        -0.0018467644        0.0010661843        7.6998670645
  O        -1.6857832822        2.9177347662        7.6998667113
  O        -3.3957907019        5.8257495288        7.7196372497
  O         3.3715616922        0.0279660978        7.7196371520
  O         1.6810962755        2.9171560160        7.6996950973
  O         0.0242267312        5.8257398377        7.7196388877
  O         6.7449800785        0.0010636641        7.6998667074
  O         5.0620453643        2.9171539420        7.6996969046
  O         3.3715689498        5.8451406530        7.6996951536
  O         1.6970010274        0.9816482050       16.4106743888
  O         0.0128575815        3.8986842381       16.4106728965
  O        -1.6857833095        6.8130146504       16.4286955821
  O         5.0461291561        0.9816544759       16.4106736131
  O         3.3715696291        3.8931505707       16.4509572597
  O         1.6874212685        6.7991137167       16.4106728531
  O         8.4289189486        0.9732886010       16.4129953753
  O         6.7302789560        3.8986874881       16.4106735914
  O         5.0557202929        6.7991206933       16.4106743531
  O         0.0000732717        1.9466176486       25.1480283932
  O        -1.6857837422        4.8662150001       25.1480225384
  O        -3.3717620122        7.7864148960       25.1480224298
  O         3.3715683968        1.9465767479       25.1480854583
  O         1.6857852797        4.8664385848       25.1480854986
  O         0.0001943920        7.7864148104       25.1480224910
  O         6.7430634048        1.9466177315       25.1480284441
  O         5.0573513470        4.8664385030       25.1480854444
  O         3.3715684191        7.7862185161       25.1480283166
  O         0.0018723719       -0.0010810029       18.5851246555
  O        -1.6857852435        2.9220258012       18.5851216697
  O        -3.3689486742        5.8412388694       18.5943719424
  O         3.3715686531       -0.0030242321       18.5943719576
  O         1.6816365786        2.9174694234       18.5969518142
  O        -0.0026206422        5.8412402196       18.5943707396
  O         6.7412630359       -0.0010800451       18.5851216821
  O         5.0615001474        2.9174687531       18.5969520832
  O         3.3715677956        5.8445161940       18.5969517756
  O         1.6861295125        0.9736325165        1.1461214145
  O         0.0004712106        3.8932780641        1.1461215513
  O        -1.6857841207        6.8130151185        1.1457691646
  O         5.0570067731        0.9736327505        1.1461213383
  O         3.3715682141        3.8931514200        1.1459019419
  O         1.6859100002        6.8125437229        1.1461215483
  O         8.4289202338        0.9732878185        1.1457141458
  O         6.7426647916        3.8932781617        1.1461213170
  O         5.0572263776        6.8125435893        1.1461213558
  O         0.0041240749        1.9489617981        9.8753580410
  O        -1.6857917103        4.8697707498        9.8656482556
  O        -3.3686738855        7.7846319259        9.8656463677
  O         3.3715674844        2.0459316337        9.9401201748
  O         1.7718342591        4.8167580452        9.9401198597
  O        -0.0028890537        7.7846438540        9.8656483305
  O         6.7390156305        1.9489546569        9.8753584092
  O         4.9713070813        4.8167617283        9.9401202506
  O         3.3715636915        7.7815382874        9.8753580506
  O         0.0000191404       -0.0000109788       22.5797006703
  O        -1.6857835564        2.9198850520       22.5797008215
  O        -3.3717831113        5.8396026356       22.5805993435
  O         3.3715684319        0.0002485556       22.5805993149
  O         1.6857413770        2.9198387091       22.5808792435
  O         0.0002155826        5.8396027445       22.5805988232
  O         6.7431178368       -0.0000110517       22.5797008422
  O         5.0573957518        2.9198384074       22.5808788845
  O         3.3715683322        5.8397766035       22.5808792347
  O         1.6866430743        0.9720611739        5.1373396868
  O        -0.0006330324        3.8945093538        5.1373397522
  O        -1.6857831711        6.8130145729        5.1488649149
  O         5.0564929848        0.9720615583        5.1373401590
  O         3.3715686978        3.8931511409        5.1418697448
  O         1.6842916290        6.8128843621        5.1373397786
  O         8.4289202298        0.9732878925        5.1354417604
  O         6.7437686204        3.8945087495        5.1373401715
  O         5.0588440139        6.8128845527        5.1373396915
  O         0.0066145797        1.9503977279       13.8362147480
  O        -1.6857867686        4.8695721925       13.8641011787
  O        -3.3688482384        7.7847326474       13.8641035954
  O         3.3715643845        2.0352801503       13.7575143309
  O         1.7626164456        4.8220800704       13.7575131672
  O        -0.0027144338        7.7847389118       13.8641011550
  O         6.7365226473        1.9503940476       13.8362146260
  O         4.9805299354        4.8220902379       13.7575143112
  O         3.3715654611        7.7786635277       13.8362147742
