335
Neutral O004 oxygen vacancy in R3m IGZO 4x4x1
Zn       0.0000000000       0.0000000000       5.6969844749
Zn      -1.6857840350       2.9198635992       5.6969844749
Zn      -3.3715680700       5.8397271984       5.6969844749
Zn      -5.0573521050       8.7595907976       5.6969844749
Zn       3.3715680700       0.0000000000       5.6969844749
Zn       1.6857840350       2.9198635992       5.6969844749
Zn       0.0000000000       5.8397271984       5.6969844749
Zn      -1.6857840350       8.7595907976       5.6969844749
Zn       6.7431361400       0.0000000000       5.6969844749
Zn       5.0573521050       2.9198635992       5.6969844749
Zn       3.3715680700       5.8397271984       5.6969844749
Zn       1.6857840350       8.7595907976       5.6969844749
Zn      10.1147042100       0.0000000000       5.6969844749
Zn       8.4289201750       2.9198635992       5.6969844749
Zn       6.7431361400       5.8397271984       5.6969844749
Zn       5.0573521050       8.7595907976       5.6969844749
Zn       1.6857841024       0.9732878275      14.4217409310
Zn       0.0000000450       3.8931514656      14.4217409310
Zn      -1.6857839676       6.8130150259      14.4217409310
Zn      -3.3715680026       9.7328786251      14.4217409310
Zn       5.0573521724       0.9732878275      14.4217409310
Zn       3.3715681150       3.8931514656      14.4217409310
Zn       1.6857841024       6.8130150259      14.4217409310
Zn       0.0000000674       9.7328786251      14.4217409310
Zn       8.4289201975       0.9732878275      14.4217409310
Zn       6.7431361400       3.8931514656      14.4217409310
Zn       5.0573521275       6.8130150259      14.4217409310
Zn       3.3715680925       9.7328786251      14.4217409310
Zn      11.8004883124       0.9732878275      14.4217409310
Zn      10.1147042550       3.8931514656      14.4217409310
Zn       8.4289202424       6.8130150259      14.4217409310
Zn       6.7431362074       9.7328786251      14.4217409310
Zn      -0.0000000674       1.9465757717      23.1464976488
Zn      -1.6857841024       4.8664393709      23.1464976488
Zn      -3.3715681150       7.7863029312      23.1464976488
Zn      -5.0573521724      10.7061665694      23.1464976488
Zn       3.3715680475       1.9465757717      23.1464976488
Zn       1.6857840125       4.8664393709      23.1464976488
Zn       0.0000000000       7.7863029312      23.1464976488
Zn      -1.6857840575      10.7061665694      23.1464976488
Zn       6.7431360726       1.9465757717      23.1464976488
Zn       5.0573520376       4.8664393709      23.1464976488
Zn       3.3715680250       7.7863029312      23.1464976488
Zn       1.6857839676      10.7061665694      23.1464976488
Zn      10.1147041426       1.9465757717      23.1464976488
Zn       8.4289201076       4.8664393709      23.1464976488
Zn       6.7431360950       7.7863029312      23.1464976488
Zn       5.0573520376      10.7061665694      23.1464976488
In       0.0000000000       0.0000000000       0.0524137132
In      -1.6857840350       2.9198635992       0.0524137132
In      -3.3715680700       5.8397271984       0.0524137132
In      -5.0573521050       8.7595907976       0.0524137132
In       3.3715680700       0.0000000000       0.0524137132
In       1.6857840350       2.9198635992       0.0524137132
In       0.0000000000       5.8397271984       0.0524137132
In      -1.6857840350       8.7595907976       0.0524137132
In       6.7431361400       0.0000000000       0.0524137132
In       5.0573521050       2.9198635992       0.0524137132
In       3.3715680700       5.8397271984       0.0524137132
In       1.6857840350       8.7595907976       0.0524137132
In      10.1147042100       0.0000000000       0.0524137132
In       8.4289201750       2.9198635992       0.0524137132
In       6.7431361400       5.8397271984       0.0524137132
In       5.0573521050       8.7595907976       0.0524137132
In       1.6857841024       0.9732878275       8.7771701693
In       0.0000000450       3.8931514656       8.7771701693
In      -1.6857839676       6.8130150259       8.7771701693
In      -3.3715680026       9.7328786251       8.7771701693
In       5.0573521724       0.9732878275       8.7771701693
In       3.3715681150       3.8931514656       8.7771701693
In       1.6857841024       6.8130150259       8.7771701693
In       0.0000000674       9.7328786251       8.7771701693
In       8.4289201975       0.9732878275       8.7771701693
In       6.7431361400       3.8931514656       8.7771701693
In       5.0573521275       6.8130150259       8.7771701693
In       3.3715680925       9.7328786251       8.7771701693
In      11.8004883124       0.9732878275       8.7771701693
In      10.1147042550       3.8931514656       8.7771701693
In       8.4289202424       6.8130150259       8.7771701693
In       6.7431362074       9.7328786251       8.7771701693
In      -0.0000000674       1.9465757717      17.5019268871
In      -1.6857841024       4.8664393709      17.5019268871
In      -3.3715681150       7.7863029312      17.5019268871
In      -5.0573521724      10.7061665694      17.5019268871
In       3.3715680475       1.9465757717      17.5019268871
In       1.6857840125       4.8664393709      17.5019268871
In       0.0000000000       7.7863029312      17.5019268871
In      -1.6857840575      10.7061665694      17.5019268871
In       6.7431360726       1.9465757717      17.5019268871
In       5.0573520376       4.8664393709      17.5019268871
In       3.3715680250       7.7863029312      17.5019268871
In       1.6857839676      10.7061665694      17.5019268871
In      10.1147041426       1.9465757717      17.5019268871
In       8.4289201076       4.8664393709      17.5019268871
In       6.7431360950       7.7863029312      17.5019268871
In       5.0573520376      10.7061665694      17.5019268871
Ga       0.0000000000       0.0000000000      20.5757786700
Ga      -1.6857840350       2.9198635992      20.5757786700
Ga      -3.3715680700       5.8397271984      20.5757786700
Ga      -5.0573521050       8.7595907976      20.5757786700
Ga       3.3715680700       0.0000000000      20.5757786700
Ga       1.6857840350       2.9198635992      20.5757786700
Ga       0.0000000000       5.8397271984      20.5757786700
Ga      -1.6857840350       8.7595907976      20.5757786700
Ga       6.7431361400       0.0000000000      20.5757786700
Ga       5.0573521050       2.9198635992      20.5757786700
Ga       3.3715680700       5.8397271984      20.5757786700
Ga       1.6857840350       8.7595907976      20.5757786700
Ga      10.1147042100       0.0000000000      20.5757786700
Ga       8.4289201750       2.9198635992      20.5757786700
Ga       6.7431361400       5.8397271984      20.5757786700
Ga       5.0573521050       8.7595907976      20.5757786700
Ga       1.6857841024       0.9732878275       3.1262654961
Ga       0.0000000450       3.8931514656       3.1262654961
Ga      -1.6857839676       6.8130150259       3.1262654961
Ga      -3.3715680026       9.7328786251       3.1262654961
Ga       5.0573521724       0.9732878275       3.1262654961
Ga       3.3715681150       3.8931514656       3.1262654961
Ga       1.6857841024       6.8130150259       3.1262654961
Ga       0.0000000674       9.7328786251       3.1262654961
Ga       8.4289201975       0.9732878275       3.1262654961
Ga       6.7431361400       3.8931514656       3.1262654961
Ga       5.0573521275       6.8130150259       3.1262654961
Ga       3.3715680925       9.7328786251       3.1262654961
Ga      11.8004883124       0.9732878275       3.1262654961
Ga      10.1147042550       3.8931514656       3.1262654961
Ga       8.4289202424       6.8130150259       3.1262654961
Ga       6.7431362074       9.7328786251       3.1262654961
Ga      -0.0000000674       1.9465757717      11.8510222139
Ga      -1.6857841024       4.8664393709      11.8510222139
Ga      -3.3715681150       7.7863029312      11.8510222139
Ga      -5.0573521724      10.7061665694      11.8510222139
Ga       3.3715680475       1.9465757717      11.8510222139
Ga       1.6857840125       4.8664393709      11.8510222139
Ga       0.0000000000       7.7863029312      11.8510222139
Ga      -1.6857840575      10.7061665694      11.8510222139
Ga       6.7431360726       1.9465757717      11.8510222139
Ga       5.0573520376       4.8664393709      11.8510222139
Ga       3.3715680250       7.7863029312      11.8510222139
Ga       1.6857839676      10.7061665694      11.8510222139
Ga      10.1147041426       1.9465757717      11.8510222139
Ga       8.4289201076       4.8664393709      11.8510222139
Ga       6.7431360950       7.7863029312      11.8510222139
Ga       5.0573520376      10.7061665694      11.8510222139
O        0.0000000000       0.0000000000       3.1491391903
O       -1.6857840350       2.9198635992       3.1491391903
O       -3.3715680700       5.8397271984       3.1491391903
O       -5.0573521050       8.7595907976       3.1491391903
O        3.3715680700       0.0000000000       3.1491391903
O        1.6857840350       2.9198635992       3.1491391903
O        0.0000000000       5.8397271984       3.1491391903
O       -1.6857840350       8.7595907976       3.1491391903
O        6.7431361400       0.0000000000       3.1491391903
O        5.0573521050       2.9198635992       3.1491391903
O        3.3715680700       5.8397271984       3.1491391903
O        1.6857840350       8.7595907976       3.1491391903
O       10.1147042100       0.0000000000       3.1491391903
O        8.4289201750       2.9198635992       3.1491391903
O        6.7431361400       5.8397271984       3.1491391903
O        5.0573521050       8.7595907976       3.1491391903
O        1.6857841024       0.9732878275      11.8738956464
O        0.0000000450       3.8931514656      11.8738956464
O       -1.6857839676       6.8130150259      11.8738956464
O       -3.3715680026       9.7328786251      11.8738956464
O        5.0573521724       0.9732878275      11.8738956464
O        3.3715681150       3.8931514656      11.8738956464
O        1.6857841024       6.8130150259      11.8738956464
O        0.0000000674       9.7328786251      11.8738956464
O        8.4289201975       0.9732878275      11.8738956464
O        6.7431361400       3.8931514656      11.8738956464
O        5.0573521275       6.8130150259      11.8738956464
O        3.3715680925       9.7328786251      11.8738956464
O       11.8004883124       0.9732878275      11.8738956464
O       10.1147042550       3.8931514656      11.8738956464
O        8.4289202424       6.8130150259      11.8738956464
O        6.7431362074       9.7328786251      11.8738956464
O       -0.0000000674       1.9465757717      20.5986523642
O       -1.6857841024       4.8664393709      20.5986523642
O       -3.3715681150       7.7863029312      20.5986523642
O       -5.0573521724      10.7061665694      20.5986523642
O        3.3715680475       1.9465757717      20.5986523642
O        1.6857840125       4.8664393709      20.5986523642
O        0.0000000000       7.7863029312      20.5986523642
O       -1.6857840575      10.7061665694      20.5986523642
O        6.7431360726       1.9465757717      20.5986523642
O        5.0573520376       4.8664393709      20.5986523642
O        3.3715680250       7.7863029312      20.5986523642
O        1.6857839676      10.7061665694      20.5986523642
O       10.1147041426       1.9465757717      20.5986523642
O        8.4289201076       4.8664393709      20.5986523642
O        6.7431360950       7.7863029312      20.5986523642
O        5.0573520376      10.7061665694      20.5986523642
O        0.0000000000       0.0000000000       7.6992234447
O       -1.6857840350       2.9198635992       7.6992234447
O       -3.3715680700       5.8397271984       7.6992234447
O       -5.0573521050       8.7595907976       7.6992234447
O        3.3715680700       0.0000000000       7.6992234447
O        1.6857840350       2.9198635992       7.6992234447
O        0.0000000000       5.8397271984       7.6992234447
O       -1.6857840350       8.7595907976       7.6992234447
O        6.7431361400       0.0000000000       7.6992234447
O        5.0573521050       2.9198635992       7.6992234447
O        3.3715680700       5.8397271984       7.6992234447
O        1.6857840350       8.7595907976       7.6992234447
O       10.1147042100       0.0000000000       7.6992234447
O        8.4289201750       2.9198635992       7.6992234447
O        6.7431361400       5.8397271984       7.6992234447
O        5.0573521050       8.7595907976       7.6992234447
O        1.6857841024       0.9732878275      16.4239799008
O        0.0000000450       3.8931514656      16.4239799008
O       -1.6857839676       6.8130150259      16.4239799008
O       -3.3715680026       9.7328786251      16.4239799008
O        5.0573521724       0.9732878275      16.4239799008
O        3.3715681150       3.8931514656      16.4239799008
O        1.6857841024       6.8130150259      16.4239799008
O        0.0000000674       9.7328786251      16.4239799008
O        8.4289201975       0.9732878275      16.4239799008
O        6.7431361400       3.8931514656      16.4239799008
O        5.0573521275       6.8130150259      16.4239799008
O        3.3715680925       9.7328786251      16.4239799008
O       11.8004883124       0.9732878275      16.4239799008
O       10.1147042550       3.8931514656      16.4239799008
O        8.4289202424       6.8130150259      16.4239799008
O        6.7431362074       9.7328786251      16.4239799008
O       -0.0000000674       1.9465757717      25.1487366186
O       -1.6857841024       4.8664393709      25.1487366186
O       -3.3715681150       7.7863029312      25.1487366186
O       -5.0573521724      10.7061665694      25.1487366186
O        3.3715680475       1.9465757717      25.1487366186
O        1.6857840125       4.8664393709      25.1487366186
O        0.0000000000       7.7863029312      25.1487366186
O       -1.6857840575      10.7061665694      25.1487366186
O        6.7431360726       1.9465757717      25.1487366186
O        5.0573520376       4.8664393709      25.1487366186
O        3.3715680250       7.7863029312      25.1487366186
O        1.6857839676      10.7061665694      25.1487366186
O       10.1147041426       1.9465757717      25.1487366186
O        8.4289201076       4.8664393709      25.1487366186
O        6.7431360950       7.7863029312      25.1487366186
O        5.0573520376      10.7061665694      25.1487366186
O        0.0000000000       0.0000000000      18.5936109154
O       -1.6857840350       2.9198635992      18.5936109154
O       -3.3715680700       5.8397271984      18.5936109154
O       -5.0573521050       8.7595907976      18.5936109154
O        3.3715680700       0.0000000000      18.5936109154
O        1.6857840350       2.9198635992      18.5936109154
O        0.0000000000       5.8397271984      18.5936109154
O       -1.6857840350       8.7595907976      18.5936109154
O        6.7431361400       0.0000000000      18.5936109154
O        5.0573521050       2.9198635992      18.5936109154
O        3.3715680700       5.8397271984      18.5936109154
O        1.6857840350       8.7595907976      18.5936109154
O       10.1147042100       0.0000000000      18.5936109154
O        8.4289201750       2.9198635992      18.5936109154
O        6.7431361400       5.8397271984      18.5936109154
O        5.0573521050       8.7595907976      18.5936109154
O        1.6857841024       0.9732878275       1.1440977415
O        0.0000000450       3.8931514656       1.1440977415
O       -1.6857839676       6.8130150259       1.1440977415
O       -3.3715680026       9.7328786251       1.1440977415
O        5.0573521724       0.9732878275       1.1440977415
O        3.3715681150       3.8931514656       1.1440977415
O        1.6857841024       6.8130150259       1.1440977415
O        0.0000000674       9.7328786251       1.1440977415
O        8.4289201975       0.9732878275       1.1440977415
O        6.7431361400       3.8931514656       1.1440977415
O        5.0573521275       6.8130150259       1.1440977415
O        3.3715680925       9.7328786251       1.1440977415
O       11.8004883124       0.9732878275       1.1440977415
O       10.1147042550       3.8931514656       1.1440977415
O        8.4289202424       6.8130150259       1.1440977415
O        6.7431362074       9.7328786251       1.1440977415
O       -0.0000000674       1.9465757717       9.8688544593
O       -1.6857841024       4.8664393709       9.8688544593
O       -3.3715681150       7.7863029312       9.8688544593
O       -5.0573521724      10.7061665694       9.8688544593
O        3.3715680475       1.9465757717       9.8688544593
O        1.6857840125       4.8664393709       9.8688544593
O        0.0000000000       7.7863029312       9.8688544593
O       -1.6857840575      10.7061665694       9.8688544593
O        6.7431360726       1.9465757717       9.8688544593
O        5.0573520376       4.8664393709       9.8688544593
O        3.3715680250       7.7863029312       9.8688544593
O        1.6857839676      10.7061665694       9.8688544593
O       10.1147041426       1.9465757717       9.8688544593
O        8.4289201076       4.8664393709       9.8688544593
O        6.7431360950       7.7863029312       9.8688544593
O        5.0573520376      10.7061665694       9.8688544593
O        0.0000000000       0.0000000000      22.5832640104
O       -1.6857840350       2.9198635992      22.5832640104
O       -3.3715680700       5.8397271984      22.5832640104
O       -5.0573521050       8.7595907976      22.5832640104
O        3.3715680700       0.0000000000      22.5832640104
O        1.6857840350       2.9198635992      22.5832640104
O        0.0000000000       5.8397271984      22.5832640104
O       -1.6857840350       8.7595907976      22.5832640104
O        6.7431361400       0.0000000000      22.5832640104
O        5.0573521050       2.9198635992      22.5832640104
O        3.3715680700       5.8397271984      22.5832640104
O        1.6857840350       8.7595907976      22.5832640104
O       10.1147042100       0.0000000000      22.5832640104
O        8.4289201750       2.9198635992      22.5832640104
O        6.7431361400       5.8397271984      22.5832640104
O        5.0573521050       8.7595907976      22.5832640104
O        1.6857841024       0.9732878275       5.1337508364
O        0.0000000450       3.8931514656       5.1337508364
O       -1.6857839676       6.8130150259       5.1337508364
O       -3.3715680026       9.7328786251       5.1337508364
O        5.0573521724       0.9732878275       5.1337508364
O        3.3715681150       3.8931514656       5.1337508364
O        1.6857841024       6.8130150259       5.1337508364
O        0.0000000674       9.7328786251       5.1337508364
O        8.4289201975       0.9732878275       5.1337508364
O        6.7431361400       3.8931514656       5.1337508364
O        5.0573521275       6.8130150259       5.1337508364
O        3.3715680925       9.7328786251       5.1337508364
O       11.8004883124       0.9732878275       5.1337508364
O       10.1147042550       3.8931514656       5.1337508364
O        8.4289202424       6.8130150259       5.1337508364
O        6.7431362074       9.7328786251       5.1337508364
O       -0.0000000674       1.9465757717      13.8585075543
O       -1.6857841024       4.8664393709      13.8585075543
O       -3.3715681150       7.7863029312      13.8585075543
O       -5.0573521724      10.7061665694      13.8585075543
O        3.3715680475       1.9465757717      13.8585075543
O        0.0000000000       7.7863029312      13.8585075543
O       -1.6857840575      10.7061665694      13.8585075543
O        6.7431360726       1.9465757717      13.8585075543
O        5.0573520376       4.8664393709      13.8585075543
O        3.3715680250       7.7863029312      13.8585075543
O        1.6857839676      10.7061665694      13.8585075543
O       10.1147041426       1.9465757717      13.8585075543
O        8.4289201076       4.8664393709      13.8585075543
O        6.7431360950       7.7863029312      13.8585075543
O        5.0573520376      10.7061665694      13.8585075543
