      21
 i =        1, E =      -767.2233931266
 Ga         0.0000242448       -0.0000142257        5.5852650047
 Ga        -0.0000712491        0.0000415153       20.5850143340
 Ga         1.6495775228        0.9522950580       14.2342279570
 Zn         1.6494828405        0.9523490255        2.9584230409
 Zn         0.0004383925        1.9044254089       23.1552994244
 Zn        -0.0001492047        1.9047643164       11.6933372831
 In        -0.0001605738        0.0000929212        0.0011468389
 In         1.6495115733        0.9523326840        8.7924876431
 In        -0.0000120646        1.9046854883       17.4055893023
  O         0.0000096715       -0.0000057477        3.4796428641
  O        -0.0003895527        0.0002254485       22.6031653777
  O         1.6497122675        0.9522170978       12.1701061082
  O         1.6494759030        0.9523532336        5.4433088862
  O         0.0002112024        1.9045565052       20.6297145123
  O        -0.0003474762        1.9048790326       14.1623583540
  O        -0.0000142283        0.0000080941        7.5145202276
  O         0.0002648526       -0.0001526591       18.5147649945
  O         1.6492946930        0.9524578140       16.2788247390
  O         1.6489280615        0.9526693918        1.0664685409
  O         0.0007119426        1.9042675385       25.0324491171
  O         0.0000012427        1.9046781018        9.6980023782
      21
 i =        2, E =      -767.2374600416
 Ga         0.0000090688       -0.0000053079        5.5365299096
 Ga         0.0000786540       -0.0000452768       20.6330590759
 Ga         1.6493323950        0.9524362407       14.2130483882
 Zn         1.6496793792        0.9522355915        2.9678175715
 Zn         0.0002823626        1.9045155226       23.1606640591
 Zn        -0.0000404056        1.9047015089       11.6754270619
 In        -0.0001353223        0.0000782705        0.0108407181
 In         1.6495037078        0.9523372689        8.7112841339
 In         0.0000066825        1.9046746029       17.4166737623
  O        -0.0001876714        0.0001081572        3.5376412537
  O        -0.0001901792        0.0001102310       22.5330408181
  O         1.6495569071        0.9523067419       12.2233216794
  O         1.6494775072        0.9523522264        5.4767987980
  O         0.0000775622        1.9046337886       20.5772822285
  O        -0.0001071508        1.9047404806       14.1945411669
  O        -0.0000135232        0.0000077421        7.5339814347
  O         0.0002461294       -0.0001418247       18.5325117734
  O         1.6492803235        0.9524661780       16.2417644830
  O         1.6489167805        0.9526760214        1.0407591109
  O         0.0006893432        1.9042805457       25.0463774591
  O         0.0000185563        1.9046680531        9.7311261737
      21
 i =        3, E =      -767.2421713449
 Ga        -0.0000114898        0.0000066111        5.5374705879
 Ga         0.0000577993       -0.0000333395       20.5794407533
 Ga         1.6494210181        0.9523848603       14.2438703176
 Zn         1.6495725861        0.9522972783        2.9903287942
 Zn         0.0001100573        1.9046151038       23.1326654214
 Zn        -0.0000002015        1.9046785407       11.6823684769
 In        -0.0000561169        0.0000322839        0.0137760737
 In         1.6495026261        0.9523379731        8.6474223713
 In         0.0000196368        1.9046672065       17.4109100987
  O        -0.0000929332        0.0000535179        3.5434162823
  O         0.0000042533       -0.0000022259       22.5549662105
  O         1.6494961525        0.9523416005       12.2303374947
  O         1.6494966649        0.9523411160        5.4926516545
  O         0.0000541369        1.9046474133       20.5687665887
  O        -0.0001017599        1.9047374781       14.1988210269
  O        -0.0000128122        0.0000073815        7.5515084639
  O         0.0001758735       -0.0001013217       18.5404460390
  O         1.6493342472        0.9524349944       16.2449196736
  O         1.6490833783        0.9525799073        1.0359447705
  O         0.0004445651        1.9044220154       25.0543524162
  O         0.0000136245        1.9046707614        9.7414765727
      21
 i =        4, E =      -767.2447020593
 Ga         0.0000017311       -0.0000010115        5.5484964110
 Ga        -0.0000143372        0.0000083912       20.5247297832
 Ga         1.6495282832        0.9523230479       14.2494816775
 Zn         1.6493859795        0.9524050297        3.0005670149
 Zn        -0.0000925570        1.9047321609       23.1115961420
 Zn         0.0000105691        1.9046725359       11.6900070905
 In         0.0000354072       -0.0000205776        0.0007313251
 In         1.6495058601        0.9523362219        8.6136084178
 In         0.0000244876        1.9046645579       17.3961552237
  O         0.0000724092       -0.0000419369        3.5684709722
  O         0.0002194639       -0.0001266296       22.5364802932
  O         1.6494399163        0.9523737939       12.2700999173
  O         1.6494970422        0.9523409641        5.5331306245
  O         0.0000359651        1.9046578151       20.5432455461
  O        -0.0000212488        1.9046908112       14.2262549606
  O        -0.0000070678        0.0000040410        7.5242113865
  O         0.0000317996       -0.0000182785       18.5278342824
  O         1.6494624101        0.9523609132       16.2876278994
  O         1.6494912403        0.9523449167        1.0770520866
  O        -0.0000262677        1.9046933333       25.0451310308
  O        -0.0000070820        1.9046826826        9.7086906049
      21
 i =        5, E =      -767.2461833180
 Ga         0.0000120728       -0.0000069732        5.5408548383
 Ga         0.0000070997       -0.0000040765       20.5104701016
 Ga         1.6495225497        0.9523262287       14.2702410901
 Zn         1.6493888411        0.9524033400        3.0209488817
 Zn        -0.0000400965        1.9047019050       23.0921346257
 Zn        -0.0000148202        1.9046871249       11.6715446558
 In         0.0000429205       -0.0000248241        0.0079771152
 In         1.6495026182        0.9523379230        8.5933198394
 In         0.0000086687        1.9046736755       17.4048548957
  O         0.0000440664       -0.0000255436        3.5940540332
  O         0.0001213975       -0.0000700820       22.4961816413
  O         1.6494519590        0.9523669001       12.2934109394
  O         1.6495195585        0.9523280280        5.5686152693
  O        -0.0000231728        1.9046919371       20.5151288107
  O         0.0000684091        1.9046390268       14.2605940791
  O        -0.0000078186        0.0000045929        7.5152255113
  O        -0.0000443076        0.0000256366       18.4991637265
  O         1.6495512146        0.9523096514       16.2934279809
  O         1.6497188804        0.9522134076        1.0871581151
  O        -0.0002313101        1.9048116261       25.0315915783
  O        -0.0000181394        1.9046891929        9.7063764439
      21
 i =        6, E =      -767.2467612728
 Ga         0.0000194742       -0.0000111924        5.5547391203
 Ga        -0.0000162771        0.0000093575       20.4979387035
 Ga         1.6495475775        0.9523116924       14.2957556912
 Zn         1.6494645399        0.9523596566        3.0329474068
 Zn         0.0000408099        1.9046551304       23.0727093518
 Zn        -0.0000293089        1.9046954472       11.6663226731
 In         0.0000149503       -0.0000084400        0.0107915256
 In         1.6494955509        0.9523421160        8.5982618764
 In        -0.0000010986        1.9046792287       17.3979574727
  O        -0.0000270798        0.0000155674        3.5959007417
  O         0.0000076469       -0.0000043692       22.4758458119
  O         1.6494716859        0.9523556753       12.2904285144
  O         1.6495230002        0.9523259980        5.5738057184
  O        -0.0000184020        1.9046891645       20.4986056902
  O         0.0000559649        1.9046462032       14.2828370366
  O        -0.0000089634        0.0000052705        7.5138596896
  O        -0.0000449720        0.0000260684       18.4968527642
  O         1.6495644963        0.9523019953       16.2914231389
  O         1.6497032657        0.9522221619        1.0852908157
  O        -0.0001941358        1.9047900542       25.0260959330
  O        -0.0000209882        1.9046906947        9.7026376033
      21
 i =        7, E =      -767.2471126923
 Ga         0.0000171005       -0.0000098517        5.5687673715
 Ga        -0.0000257957        0.0000149021       20.4904440354
 Ga         1.6495357391        0.9523185639       14.2941779043
 Zn         1.6495124584        0.9523320665        3.0304095626
 Zn         0.0000513083        1.9046489872       23.0659335758
 Zn        -0.0000250512        1.9046930381       11.6748610815
 In        -0.0000052221        0.0000032169        0.0058595582
 In         1.6494877824        0.9523467579        8.6107821908
 In         0.0000018393        1.9046774704       17.3926790524
  O        -0.0000531407        0.0000305313        3.5969648517
  O        -0.0000335467        0.0000196272       22.4637857729
  O         1.6494846809        0.9523483055       12.2876323803
  O         1.6495158148        0.9523301722        5.5653503487
  O        -0.0000211086        1.9046905894       20.4764188676
  O         0.0000406683        1.9046550176       14.3001212337
  O        -0.0000128985        0.0000075590        7.5288434632
  O        -0.0000089868        0.0000053021       18.4923136281
  O         1.6495317459        0.9523208594       16.2953668675
  O         1.6495546358        0.9523077258        1.0882773703
  O        -0.0000488146        1.9047062271       25.0132417995
  O        -0.0000212594        1.9046906617        9.6975258284
