21
Zn3 In3 Ga3 O12
Ga 0.000000 0.000000 5.666527
Ga 0.000000 0.000000 20.434473
Ga 1.649500 0.952339 14.366860
Zn 1.649500 0.952339 3.033806
Zn 0.000000 1.904679 23.067194
Zn 0.000000 1.904679 11.734140
In 0.000000 0.000000 0.000000
In 1.649500 0.952339 8.700333
In 0.000000 1.904679 17.400667
O 0.000000 0.000000 3.346148
O 0.000000 0.000000 22.754852
O 1.649500 0.952339 12.046482
O 1.649500 0.952339 5.354185
O 0.000000 1.904679 20.746815
O 0.000000 1.904679 14.054518
O 0.000000 0.000000 7.642373
O 0.000000 0.000000 18.458627
O 1.649500 0.952339 16.342706
O 1.649500 0.952339 1.057961
O 0.000000 1.904679 25.043039
O 0.000000 1.904679 9.758294