335
i =       14, E =    -12260.0512333696
Zn      -0.0000553382       0.0012390400       5.6944055140
Zn      -1.6857861901       2.9198612901       5.6958547462
Zn      -3.3705209977       5.8390600257       5.6944019566
Zn      -5.0566023035       8.7600233331       5.6944102165
Zn       3.3714889755       0.0000456854       5.6959924694
Zn       1.6846842480       2.9192922712       5.6944039373
Zn      -0.0010458173       5.8390597281       5.6944013761
Zn      -1.6857850297       8.7594993170       5.6959925444
Zn       6.7432186546       0.0000471254       5.6959908861
Zn       5.0573547013       2.9190008802       5.6944092330
Zn       3.3695478941       5.8385602001       5.6893126526
Zn       1.6850336205       8.7600252359       5.6944105728
Zn      10.1147589745       0.0012378300       5.6944015255
Zn       8.4300204656       2.9192921744       5.6944011115
Zn       6.7451603264       5.8385606445       5.6893104328
Zn       5.0573528376       8.7619255708       5.6893096342
Zn       1.6842664230       0.9741626447      14.4095596633
Zn      -0.0025275798       3.8916885343      14.4149025845
Zn      -1.6857839568       6.8112609482      14.4095626449
Zn      -3.3698357757       9.7338783290      14.4159839894
Zn       5.0573509997       0.9712870569      14.4159842765
Zn       3.3673591768       3.8887611710      14.4208780708
Zn       1.6798618191       6.8115668162      14.4208905474
Zn      -0.0017329039       9.7338788966      14.4159883108
Zn       8.4304378090       0.9741635856      14.4095633018
Zn       6.7473535619       3.8887510144      14.4208799483
Zn       5.0573412778       6.8130200900      14.0999029454
Zn       3.3698642033       9.7387329521      14.4208887765
Zn      11.8004892228       0.9762073486      14.4149042758
Zn      10.1172357305       3.8916899544      14.4149029722
Zn       8.4348358078       6.8115641288      14.4208825466
Zn       6.7448368221       9.7387177021      14.4208805762
Zn      -0.0007205894       1.9469922776      23.1469173991
Zn      -1.6857836520       4.8656088635      23.1469128705
Zn      -3.3678094526       7.7805673712      23.1525732530
Zn      -5.0604404318      10.7122858834      23.1525794533
Zn       3.3647254051       1.9461909687      23.1525766083
Zn       1.6880989846       4.8677727860      23.1569054628
Zn      -0.0037524921       7.7805683096      23.1525796878
Zn      -1.6857826048      10.7061665674      23.1535466302
Zn       6.7499799234       1.9461895864      23.1525808317
Zn       5.0573516144       4.8715660106      23.1811849118
Zn       3.3760101533       7.7837357801      23.1811699122
Zn       1.6888695561      10.7122868026      23.1525816647
Zn      10.1154203548       1.9469914596      23.1469117391
Zn       8.4266011140       4.8677777785      23.1569086090
Zn       6.7386980833       7.7837396249      23.1811911373
Zn       5.0573531250      10.7034921075      23.1569029710
In       0.0002383999       0.0009124464       0.0559952687
In      -1.6857849872       2.9198660296       0.0521179203
In      -3.3706563224       5.8394833219       0.0559773892
In      -5.0549990889       8.7609484568       0.0594991193
In       3.3716504849      -0.0000456520       0.0550509836
In       1.6851133357       2.9191978203       0.0559932227
In      -0.0009101749       5.8394781759       0.0559919115
In      -1.6857803392       8.7596836271       0.0550478215
In       6.7430571425      -0.0000463789       0.0550509914
In       5.0573521437       2.9171478997       0.0594933143
In       3.3697744973       5.8386904674       0.0699641505
In       1.6834348449       8.7609443142       0.0594931782
In      10.1144639430       0.0009127004       0.0559819079
In       8.4295896123       2.9192011658       0.0559826130
In       6.7449264891       5.8386918847       0.0699718537
In       5.0573489857       8.7616595574       0.0699615798
In       1.6858587614       0.9732457233       8.7737388991
In      -0.0011907794       3.8924644830       8.7740005590
In      -1.6857886331       6.8131043970       8.7737445610
In      -3.3711113505       9.7331424161       8.7735483582
In       5.0573523024       0.9727649873       8.7735405502
In       3.3671780546       3.8901279649       8.7632447329
In       1.6809631216       6.8107276565       8.7632378766
In      -0.0004597275       9.7331436999       8.7735477117
In       8.4288414797       0.9732443755       8.7737442346
In       6.7475261658       3.8901259730       8.7632463832
In       5.0573487611       6.8130200481       8.7267226516
In       3.3711393816       9.7381965935       8.7632398479
In      11.8004875279       0.9746554996       8.7740082327
In      10.1158899039       3.8924637929       8.7740077191
In       8.4337340152       6.8107256498       8.7632449531
In       6.7435626573       9.7381912166       8.7632412227
In      -0.0033712132       1.9485173965      17.5014763708
In      -1.6857829276       4.8625461791      17.5014690957
In      -3.3448328809       7.7900551323      17.4897357422
In      -5.0407339315      10.7274429599      17.4897371408
In       3.3614514490       1.9215465359      17.4897342067
In       1.6805794430       4.8634373185      17.4845285830
In      -0.0267339406       7.7900605329      17.4897368426
In      -1.6857876647      10.7061664191      17.5030413088
In       6.7532506246       1.9215428342      17.4897326613
In       5.0573532473       4.7231020222      17.6348405213
In       3.2474360341       7.8579690715      17.6348623746
In       1.6691641598      10.7274397346      17.4897321712
In      10.1180747303       1.9485222509      17.5014709655
In       8.4341233628       4.8634350998      17.4845308714
In       6.8672686079       7.8579735149      17.6348476816
In       5.0573478893      10.7121761455      17.4845255086
Ga       0.0001232217      -0.0018640861      20.5717211025
Ga      -1.6857846653       2.9198633317      20.5769658858
Ga      -3.3731234747       5.8407630093      20.5717182936
Ga      -5.0450788056       8.7666696939      20.6206698083
Ga       3.3720551050      -0.0002807517      20.5807349869
Ga       1.6874570277       2.9206891948      20.5717192689
Ga       0.0015503486       5.8407640328      20.5717203447
Ga      -1.6857859754       8.7601532424      20.5807337070
Ga       6.7426478498      -0.0002804607      20.5807358123
Ga       5.0573607539       2.9056947091      20.6206715024
Ga       3.3768691354       5.8427851903      20.5821206855
Ga       1.6734972828       8.7666871300      20.6206738721
Ga      10.1145808303      -0.0018627799      20.5717201937
Ga       8.4272449570       2.9206906389      20.5717202279
Ga       6.7378301781       5.8427906128      20.5821235842
Ga       5.0573552018       8.7534714969      20.5821208354
Ga       1.6859200640       0.9732090889       3.1275475084
Ga      -0.0002446611       3.8930121702       3.1272560887
Ga      -1.6857868195       6.8131714392       3.1275513090
Ga      -3.3712532999       9.7330597877       3.1280692034
Ga       5.0573486232       0.9729230555       3.1280756129
Ga       3.3713416491       3.8922329305       3.1285608306
Ga       1.6848755356       6.8132789375       3.1285620068
Ga      -0.0003176864       9.7330591746       3.1280757529
Ga       8.4287841743       0.9732105284       3.1275602726
Ga       6.7433607878       3.8922341748       3.1285670931
Ga       5.0573522006       6.8130160806       3.1299755083
Ga       3.3708843985       9.7335307509       3.1285644342
Ga      11.8004903810       0.9735694109       3.1272603867
Ga      10.1149530218       3.8930119425       3.1272628532
Ga       8.4298295381       6.8132823761       3.1285621433
Ga       6.7438209622       9.7335311261       3.1285592385
Ga       0.0000578635       1.9465433748      11.8476227955
Ga      -1.6857838682       4.8665055035      11.8476187043
Ga      -3.3702516848       7.7876580285      11.8478125738
Ga      -5.0555195404      10.7066277159      11.8478167418
Ga       3.3720862548       1.9447596946      11.8478178940
Ga       1.6857126671       4.8663973451      11.8473262526
Ga      -0.0013256214       7.7876592674      11.8478111388
Ga      -1.6857850432      10.7061672901      11.8479763645
Ga       6.7426196561       1.9447574525      11.8478137803
Ga       5.0573582851       4.8472605892      11.8015393670
Ga       3.3548747303       7.7959430954      11.8015526441
Ga       1.6839435181      10.7066374107      11.8478129987
Ga      10.1146461994       1.9465409268      11.8476203104
Ga       8.4289939341       4.8663968260      11.8473252488
Ga       6.7597422421       7.7958849633      11.8015386508
Ga       5.0573522702      10.7062475458      11.8473273047
O       -0.0001592093       0.0003033137       3.1490719372
O       -1.6857820614       2.9198622446       3.1485198257
O       -3.3713840615       5.8394352603       3.1490621035
O       -5.0572321961       8.7596586001       3.1493646405
O        3.3716514122      -0.0000515557       3.1493065908
O        1.6854371422       2.9198497500       3.1490769843
O       -0.0001850987       5.8394369392       3.1490772881
O       -1.6857860872       8.7596876584       3.1493006984
O        6.7430517782      -0.0000485433       3.1492971675
O        5.0573533087       2.9197256902       3.1493549310
O        3.3713130131       5.8395802902       3.1494766772
O        1.6856639429       8.7596587937       3.1493605539
O       10.1148660131       0.0003049380       3.1490633360
O        8.4292664937       2.9198518046       3.1490603739
O        6.7433941579       5.8395821373       3.1494730602
O        5.0573554408       8.7598865691       3.1494753270
O        1.6874936124       0.9723025235      11.8791301096
O        0.0031137029       3.8949481276      11.8784561674
O       -1.6857875674       6.8149853339      11.8791433707
O       -3.3724968454       9.7323410589      11.8786092397
O        5.0573540258       0.9743607166      11.8786098921
O        3.3778402214       3.8962729271      11.8817076751
O        1.6915947098       6.8168838286      11.8817059589
O        0.0009281303       9.7323430754      11.8786088074
O        8.4272110577       0.9723053909      11.8791344445
O        6.7368664057       3.8962711680      11.8817066565
O        5.0573206061       6.8130308986      11.9227751931
O        3.3711217272       9.7259146177      11.8817054669
O       11.8004901115       0.9696912434      11.8784521879
O       10.1115941562       3.8949449856      11.8784625275
O        8.4230796466       6.8168874311      11.8817037075
O        6.7435707233       9.7258812959      11.8816961641
O        0.0022207215       1.9452905578      20.5892497030
O       -1.6857857118       4.8690034657      20.5892569945
O       -3.3690936249       7.7850522683      20.6053266124
O       -5.0571947880      10.7089263265      20.6053256919
O        3.3692560224       1.9450599749      20.6053250248
O        1.7095387613       4.8801524946      20.5376658269
O       -0.0024749864       7.7850562867      20.6053230700
O       -1.6857829775      10.7061648979      20.5981542993
O        6.7454593381       1.9450575150      20.6053242136
O        5.0573540703       4.8597885634      20.5178843082
O        3.3658037032       7.7896313812      20.5178995168
O        1.6856236351      10.7089368357      20.6053217715
O       10.1124835185       1.9452929568      20.5892561528
O        8.4051585987       4.8801592926      20.5376583381
O        6.7488991254       7.7896267654      20.5178619069
O        5.0573536282      10.6787374556      20.5376705982
O       -0.0006128688       0.0020667736       7.6981390783
O       -1.6857873079       2.9198590141       7.6994739845
O       -3.3700843961       5.8381621316       7.6981357876
O       -5.0585780648       8.7588807334       7.6989329407
O        3.3709330473       0.0003687102       7.7001712526
O        1.6836887456       2.9193630477       7.6981385977
O       -0.0014870469       5.8381643288       7.6981382763
O       -1.6857848131       8.7588576635       7.7001729719
O        6.7437696291       0.0003662152       7.7001676260
O        5.0573493730       2.9212833347       7.6989317190
O        3.3673114882       5.8372731858       7.6923959944
O        1.6870054619       8.7588825486       7.6989280457
O       10.1153161238       0.0020687989       7.6981356512
O        8.4310173885       2.9193582964       7.6981354221
O        6.7473934187       5.8372716830       7.6923952679
O        5.0573505049       8.7645031463       7.6923928629
O        1.6804794135       0.9763517023      16.4148274872
O        0.0018320648       3.8942119830      16.4196657922
O       -1.6857806778       6.8068874830      16.4148267525
O       -3.3702036746       9.7336664341      16.4190256573
O        5.0573482584       0.9717101327      16.4190263313
O        3.4019457670       3.9099776623      16.4331171532
O        1.7155485901       6.8309135937      16.4331246725
O       -0.0013699269       9.7336688305      16.4190302889
O        8.4342266003       0.9763494001      16.4148273095
O        6.7127678289       3.9099718494      16.4331197593
O        3.3709508257       9.6981478872      16.4331233088
O       11.8004852069       0.9711691633      16.4196659371
O       10.1128748564       3.8942083606      16.4196671519
O        8.3991628694       6.8309022591      16.4331244036
O        6.7437549639       9.6981601077      16.4331225085
O        0.0011312448       1.9459228426      25.1437723785
O       -1.6857849962       4.8677438949      25.1437691547
O       -3.3730348052       7.7849813240      25.1467283920
O       -5.0592346422      10.7055587262      25.1467307490
O        3.3711506148       1.9485091548      25.1467299668
O        1.6899010347       4.8688109642      25.1475976042
O        0.0014679022       7.7849760089      25.1467305573
O       -1.6857858878      10.7061655984      25.1493794843
O        6.7435503386       1.9485095576      25.1467295654
O        5.0573500743       4.8703455144      25.1579351785
O        3.3749545107       7.7843467804      25.1579263084
O        1.6876684754      10.7055565739      25.1467304966
O       10.1135767008       1.9459249838      25.1437706906
O        8.4248005450       4.8688188272      25.1475966598
O        6.7397518514       7.7843496441      25.1579381581
O        5.0573539360      10.7014130824      25.1475970492
O        0.0030476158      -0.0098772404      18.5818244074
O       -1.6857857690       2.9198648977      18.5907263450
O       -3.3785837864       5.8472999956      18.5818260144
O       -4.9829478153       8.8025452434      18.6230890304
O        3.3728542463      -0.0007427343      18.5949365632
O        1.6958596038       2.9221589857      18.5818260724
O        0.0070162908       5.8473044844      18.5818254951
O       -1.6857862509       8.7610771060      18.5949347634
O        6.7418475078      -0.0007428777      18.5949351149
O        5.0573509910       2.8339561692      18.6230911543
O        3.4342306829       5.8758973511      18.5169655391
O        1.6113867182       8.8025454680      18.6230986675
O       10.1116490239      -0.0098643287      18.5818254089
O        8.4188508646       2.9221527813      18.5818268903
O        6.6804464622       5.8759174876      18.5169536163
O        5.0573547070       8.6872400891      18.5169670819
O        1.6860556250       0.9731301855       1.1432555906
O       -0.0000941075       3.8930960210       1.1419479508
O       -1.6857855096       6.8133310160       1.1432558061
O       -3.3713734767       9.7329887470       1.1439059385
O        5.0573544200       0.9730712021       1.1439104474
O        3.3713856149       3.8915872607       1.1452853536
O        1.6843410302       6.8136363047       1.1452843501
O       -0.0001874272       9.7329885693       1.1439101749
O        8.4286524684       0.9731334970       1.1432626925
O        6.7433225407       3.8915870869       1.1452906043
O        5.0573499039       6.8130161943       1.1484034309
O        3.3703065707       9.7338218580       1.1452877230
O       11.8004820917       0.9733942005       1.1419523198
O       10.1147920529       3.8931013003       1.1419507787
O        8.4303690441       6.8136351947       1.1452854431
O        6.7443934435       9.7338177514       1.1452825295
O        0.0003661100       1.9463626777       9.8705145474
O       -1.6857824605       4.8668625744       9.8705103077
O       -3.3751714466       7.7846817127       9.8701367889
O       -5.0605572579      10.7038616188       9.8701391682
O        3.3719623365       1.9505068903       9.8701387323
O        1.6896533708       4.8686742514       9.8700502851
O        0.0035958216       7.7846850196       9.8701353470
O       -1.6857859756      10.7061701531       9.8703578614
O        6.7427361036       1.9505045002       9.8701365697
O        5.0573503756       4.8805949820       9.8536095135
O        3.3838022440       7.7792356186       9.8536161048
O        1.6889828748      10.7038600290       9.8701357280
O       10.1143400109       1.9463620021       9.8705118829
O        8.4250514309       4.8686755448       9.8700502635
O        6.7308787943       7.7792249398       9.8536076982
O        5.0573555787      10.7016976511       9.8700513718
O       -0.0127539464      -0.0047735485      22.5674003566
O       -1.6857829954       2.9198638729      22.5753507371
O       -3.3820895607       5.8310662571      22.5673983754
O       -5.0715243738       8.7514087888      22.5937288487
O        3.3706633541       0.0005209237      22.5857284176
O        1.6835403560       2.9332983825      22.5673986820
O        0.0105208997       5.8310701227      22.5673988404
O       -1.6857861109       8.7585467894      22.5857264812
O        6.7440412550       0.0005230488      22.5857281692
O        5.0573500684       2.9362276432      22.5937302993
O        3.3836914001       5.8467227519      22.5620758227
O        1.6999532873       8.7514082605      22.5937306674
O       10.1274599330      -0.0047829045      22.5673981849
O        8.4311593048       2.9333067721      22.5674003572
O        6.7310088098       5.8467289473      22.5620783667
O        5.0573561261       8.7455886739      22.5620758641
O        1.6859987650       0.9731629845       5.1343281370
O       -0.0002117482       3.8930295083       5.1340647958
O       -1.6857837516       6.8132661053       5.1343300941
O       -3.3714680936       9.7329363150       5.1352122975
O        5.0573525171       0.9731730608       5.1352176416
O        3.3714636837       3.8921959505       5.1346715140
O        1.6849027066       6.8134018110       5.1346732683
O       -0.0000989096       9.7329353438       5.1352159893
O        8.4287037051       0.9731640419       5.1343380500
O        6.7432414118       3.8921958531       5.1346775532
O        5.0573541594       6.8130146338       5.1366191822
O        3.3707934083       9.7334478204       5.1346750336
O       11.8004884085       0.9735322425       5.1340686430
O       10.1149146178       3.8930274203       5.1340691741
O        8.4297981424       6.8134038090       5.1346744884
O        6.7439130858       9.7334473117       5.1346716051
O       -0.0005765404       1.9469074197      13.8571150740
O       -1.6857814913       4.8657767366      13.8571095897
O       -3.3759944559       7.7841175597      13.8619295056
O       -5.0614598616      10.7034294229      13.8619346725
O        3.3718831138       1.9515040606      13.8619347614
O        1.6904486104       4.8691357308      13.8646952519
O        0.0044209357       7.7841181091      13.8619328750
O       -1.6857837509      10.7061660123      13.8568591601
O        6.7428189337       1.9514988414      13.8619309495
O        5.0573555732       4.8687131933      13.8775284371
O        3.3735185833       7.7851792395      13.8775268234
O        1.6898891911      10.7034304881      13.8619351656
O       10.1152805069       1.9469059827      13.8571118735
O        8.4242627212       4.8691287791      13.8646924957
O        6.7411636188       7.7851635615      13.8775388601
O        5.0573490845      10.7007837977      13.8646967101
