     188
 i =        1, E =     -6889.1403099388
 Zn        -0.0001285753        0.0000813514        5.6927485966
 Zn        -1.6857771333        2.9197071938        5.6927441334
 Zn        -3.3716147714        5.8396918310        5.6974959288
 Zn         3.3715808564        0.0000612627        5.6974945045
 Zn         1.6857155473        2.9198191023        5.6981157852
 Zn         0.0000599583        5.8396866096        5.6974972178
 Zn         6.7432789143        0.0000690047        5.6927466087
 Zn         5.0574464738        2.9198151797        5.6981205466
 Zn         3.3715793286        5.8398111344        5.6981185507
 Zn         1.6866657668        0.9745917887       14.4212990522
 Zn         0.0015731689        3.8932521411       14.4213028364
 Zn        -1.6857810078        6.8130172943       14.4246961781
 Zn         5.0564754838        0.9745973063       14.4213075694
 Zn         3.3715691169        3.8931537489       14.4509389785
 Zn         1.6864845464        6.8116011890       14.4213042718
 Zn         8.4289234434        0.9732843436       14.4226322402
 Zn         6.7415593719        3.8932492887       14.4212987066
 Zn         5.0566573730        6.8116007701       14.4213054707
 Zn         0.0000169719        1.9465834573       23.1467467637
 Zn        -1.6857810138        4.8663705224       23.1467199409
 Zn        -3.3716175073        7.7863367749       23.1467214460
 Zn         3.3715676187        1.9466573450       23.1467778392
 Zn         1.6858626755        4.8663905634       23.1467635042
 Zn         0.0000635466        7.7863381767       23.1467246918
 Zn         6.7431136488        1.9465804387       23.1467618131
 Zn         5.0572742339        4.8663887616       23.1467621398
 Zn         3.3715669356        7.7862793392       23.1467621556
 In        -0.0001368696        0.0000785540        0.0528103841
 In        -1.6857841940        2.9197067427        0.0528213258
 In        -3.3716113311        5.8397050451        0.0527591361
 In         3.3715687318        0.0000481719        0.0527567386
 In         1.6856773585        2.9198070988        0.0525994562
 In         0.0000380858        5.8397020967        0.0527571230
 In         6.7432741634        0.0000803603        0.0528122196
 In         5.0574576975        2.9198039343        0.0525943511
 In         3.3715716135        5.8398415651        0.0525979480
 In         1.6805243467        0.9703396644        8.7665356409
 In        -0.0051786858        3.8900776574        8.7665361325
 In        -1.6857820451        6.8130144414        8.7687906838
 In         5.0626122378        0.9703385899        8.7665318908
 In         3.3715603104        3.8931501279        8.7274510901
 In         1.6858545187        6.8190398322        8.7665420328
 In         8.4289152236        0.9732838848        8.7736847996
 In         6.7483135355        3.8900733461        8.7665352260
 In         5.0572771243        6.8190480502        8.7665343722
 In        -0.0005295710        1.9462692021       17.5099950761
 In        -1.6857882163        4.8671201044       17.5092567743
 In        -3.3709830528        7.7859615453       17.5092521325
 In         3.3715700805        1.9457651791       17.5124443470
 In         1.6850818521        4.8668455031       17.5124462063
 In        -0.0005870632        7.7859654428       17.5092516512
 In         6.7436597082        1.9462678880       17.5099849560
 In         5.0580592928        4.8668507898       17.5124408518
 In         3.3715707293        7.7869080048       17.5099860810
 Ga        -0.0000155089        0.0000131426       20.5762339424
 Ga        -1.6857798589        2.9198446887       20.5762338754
 Ga        -3.3715590830        5.8397354651       20.5763737000
 Ga         3.3715630859       -0.0000108856       20.5763820423
 Ga         1.6859047810        2.9199389620       20.5761034277
 Ga        -0.0000152302        5.8397335265       20.5763777407
 Ga         6.7431493526        0.0000088814       20.5762364345
 Ga         5.0572262151        2.9199386089       20.5761064012
 Ga         3.3715670528        5.8395875419       20.5761059702
 Ga         1.6857199545        0.9733574597        3.1250929764
 Ga         0.0000118852        3.8930688756        3.1250940644
 Ga        -1.6857872988        6.8130180353        3.1248353187
 Ga         5.0574060389        0.9733557806        3.1250910947
 Ga         3.3715606319        3.8931502461        3.1251849143
 Ga         1.6858668692        6.8130406597        3.1250950443
 Ga         8.4289182148        0.9732926513        3.1252799887
 Ga         6.7431119598        3.8930679755        3.1250937953
 Ga         5.0572642795        6.8130353372        3.1250886316
 Ga        -0.0003820696        1.9463605247       11.8494436105
 Ga        -1.6857809245        4.8704987917       11.8506105348
 Ga        -3.3680585496        7.7842753096       11.8506154344
 Ga         3.3715631296        1.9285415877       11.8528807163
 Ga         1.6701727920        4.8754514783       11.8528737542
 Ga        -0.0035159820        7.7842758955       11.8506131400
 Ga         6.7435134626        1.9463643513       11.8494479165
 Ga         5.0729762668        4.8754597101       11.8528850466
 Ga         3.3715638647        7.7867388709       11.8494486327
  O        -0.0000524700        0.0000296748        3.1545760482
  O        -1.6857901288        2.9198040950        3.1545385286
  O        -3.3717347322        5.8396344538        3.1542308748
  O         3.3715618122        0.0001920737        3.1542286800
  O         1.6858733319        2.9199258239        3.1541621505
  O         0.0001618110        5.8396376571        3.1542373914
  O         6.7431816813        0.0000346900        3.1545758009
  O         5.0572477681        2.9199265138        3.1541631153
  O         3.3715638142        5.8396127105        3.1541575298
  O         1.6838797441        0.9696722649       11.8783467683
  O        -0.0040799608        3.8933179527       11.8783548178
  O        -1.6857861289        6.8130151670       11.8769829022
  O         5.0592483064        0.9696725112       11.8783468081
  O         1.6835956006        6.8164637481       11.8783500939
  O         8.4289187048        0.9732878159       11.8774386690
  O         6.7472222275        3.8933250267       11.8783445990
  O         5.0595316025        6.8164672678       11.8783421614
  O         0.0001577777        1.9466677995       20.5974551275
  O        -1.6857893812        4.8664483617       20.5976451731
  O        -3.3715622737        7.7862970731       20.5976557486
  O         3.3715645809        1.9465643215       20.5973970416
  O         1.6857715653        4.8664503480       20.5974231990
  O        -0.0000125327        7.7862992215       20.5976445346
  O         6.7429819529        1.9466668542       20.5974334283
  O         5.0573624751        4.8664515365       20.5974276011
  O         3.3715684986        7.7861258617       20.5974266480
  O        -0.0053234226        0.0030716264        7.6959196746
  O        -1.6857812817        2.9137224248        7.6959161554
  O        -3.3765173671        5.8368755006        7.7031381673
  O         3.3715584844        0.0057082784        7.7031398080
  O         1.6882956704        2.9213166914        7.7034294583
  O         0.0049387548        5.8368796052        7.7031409764
  O         6.7484498896        0.0030723511        7.6959194354
  O         5.0548194965        2.9213248270        7.7034358973
  O         3.3715700740        5.8368223101        7.7034322882
  O         1.6881086940        0.9754300174       16.4200981135
  O         0.0030146289        3.8940963005       16.4201033883
  O        -1.6857821739        6.8130189027       16.4240269747
  O         5.0550243721        0.9754276409       16.4201061363
  O         3.3715710086        3.8931535766       16.4321858955
  O         1.6864720992        6.8099216892       16.4201055505
  O         8.4289198104        0.9732872748       16.4221404493
  O         6.7401167042        3.8940964296       16.4201006111
  O         5.0566652846        6.8099328591       16.4201006539
  O        -0.0000005817        1.9465748527       25.1484218646
  O        -1.6857869103        4.8665167321       25.1484677361
  O        -3.3715032313        7.7862659946       25.1484723581
  O         3.3715670733        1.9465297794       25.1484911824
  O         1.6857434847        4.8664676978       25.1484817730
  O        -0.0000609104        7.7862657509       25.1484719729
  O         6.7431416743        1.9465700336       25.1484313962
  O         5.0573954290        4.8664610192       25.1484814053
  O         3.3715669257        7.7863079398       25.1484318155
  O         0.0009704356       -0.0005610719       18.5934629712
  O        -1.6857874201        2.9209842915       18.5934586069
  O        -3.3728057146        5.8390137597       18.5937658196
  O         3.3715661894        0.0014245260       18.5937729770
  O         1.6863852532        2.9202072047       18.5930908639
  O         0.0012394930        5.8390127139       18.5937715417
  O         6.7421697672       -0.0005590141       18.5934636169
  O         5.0567583777        2.9202136906       18.5930953021
  O         3.3715700518        5.8390310312       18.5930898848
  O         1.6857622233        0.9732428652        1.1443224615
  O        -0.0000376655        3.8931571748        1.1443289435
  O        -1.6857845678        6.8130155787        1.1441134507
  O         5.0573747303        0.9732486509        1.1443203665
  O         3.3715688998        3.8931468504        1.1441085280
  O         1.6857597265        6.8130492388        1.1443194593
  O         8.4289190827        0.9732800512        1.1448089630
  O         6.7431716742        3.8931598891        1.1443284088
  O         5.0573724004        6.8130526264        1.1443231685
  O         0.0027420991        1.9481586307        9.8707820188
  O        -1.6857862852        4.8661134462        9.8707253165
  O        -3.3718441126        7.7864612992        9.8707316802
  O         3.3715751614        1.9922404842        9.8846301847
  O         1.7253416355        4.8435968787        9.8846231180
  O         0.0002779348        7.7864649971        9.8707294426
  O         6.7403979491        1.9481616214        9.8707863844
  O         5.0177890446        4.8436097463        9.8846338382
  O         3.3715722923        7.7831321156        9.8707875694
  O        -0.0000694365        0.0000323317       22.5813145677
  O        -1.6857910065        2.9197827914       22.5813160656
  O        -3.3716040070        5.8397043275       22.5814608681
  O         3.3715748180        0.0000422172       22.5814619477
  O         1.6857594576        2.9198434665       22.5812005375
  O         0.0000384713        5.8397079876       22.5814595548
  O         6.7432080372        0.0000384074       22.5813163835
  O         5.0573780137        2.9198401549       22.5811995995
  O         3.3715691458        5.8397622428       22.5812045424
  O         1.6860027830        0.9739426421        5.1334678237
  O         0.0006791794        3.8930040876        5.1334649035
  O        -1.6857817334        6.8130123943        5.1330768200
  O         5.0571447472        0.9739448616        5.1334601286
  O         3.3715771859        3.8931494137        5.1344146963
  O         1.6862521760        6.8124955692        5.1334657240
  O         8.4289218488        0.9732871897        5.1329592138
  O         6.7424663089        3.8930087024        5.1334662182
  O         5.0568962978        6.8125037919        5.1334651528
  O         0.0015851918        1.9474877573       13.8532661835
  O        -1.6857829183        4.8658655065       13.8558372579
  O        -3.3720676735        7.7865861527       13.8558375527
  O         3.3715679642        1.9726081847       13.8452013851
  O         1.7083210708        4.8534254701       13.8451975314
  O         0.0005019433        7.7865901709       13.8558362689
  O         6.7415585470        1.9474834137       13.8532653044
  O         5.0348103603        4.8534294019       13.8452030009
  O         3.3715705458        7.7844755244       13.8532673330
     188
 i =        2, E =     -6889.1444955040
 Zn        -0.0007021084        0.0004097745        5.6863994748
 Zn        -1.6857787371        2.9190434398        5.6864100041
 Zn        -3.3721208332        5.8394046055        5.6925620174
 Zn         3.3715741237        0.0006427731        5.6925614689
 Zn         1.6845352584        2.9191390236        5.6847140515
 Zn         0.0005628860        5.8394007828        5.6925606043
 Zn         6.7438514859        0.0004033686        5.6863975828
 Zn         5.0586160058        2.9191382709        5.6847119556
 Zn         3.3715760451        5.8411719582        5.6847168501
 Zn         1.6855242211        0.9759420209       14.4241622549
 Zn         0.0021682812        3.8915966720       14.4241614802
 Zn        -1.6857821740        6.8130126297       14.4340362289
 Zn         5.0576122816        0.9759424428       14.4241591813
 Zn         3.3715658264        3.8931530933       14.4954874172
 Zn         1.6882127915        6.8119117140       14.4241590836
 Zn         8.4289226323        0.9732879552       14.4266420820
 Zn         6.7409684474        3.8915982042       14.4241605298
 Zn         5.0549252380        6.8119127264       14.4241623162
 Zn         0.0001479506        1.9466597126       23.1469926446
 Zn        -1.6857832559        4.8664820773       23.1470202860
 Zn        -3.3715255582        7.7862778683       23.1470143937
 Zn         3.3715664500        1.9466783112       23.1469521567
 Zn         1.6858766017        4.8663838801       23.1469449822
 Zn        -0.0000364110        7.7862784905       23.1470163414
 Zn         6.7429888392        1.9466591666       23.1469956321
 Zn         5.0572614836        4.8663847619       23.1469418590
 Zn         3.3715704154        7.7861295232       23.1469973845
 In         0.0000859759       -0.0000477342        0.0514164115
 In        -1.6857840573        2.9199616717        0.0514266766
 In        -3.3716578149        5.8396777917        0.0512563980
 In         3.3715669371        0.0001037025        0.0512605787
 In         1.6858934065        2.9199285755        0.0513378932
 In         0.0000905342        5.8396792128        0.0512550894
 In         6.7430522673       -0.0000532849        0.0514227643
 In         5.0572401508        2.9199279589        0.0513380324
 In         3.3715651884        5.8395964973        0.0513396528
 In         1.6790762241        0.9738467209        8.7698598819
 In        -0.0028743567        3.8870609878        8.7698559346
 In        -1.6857879463        6.8130161769        8.7685199344
 In         5.0640537535        0.9738464252        8.7698591282
 In         3.3715666644        3.8931531017        8.6841643511
 In         1.6896223801        6.8185419402        8.7698629646
 In         8.4289193427        0.9732910237        8.7779311586
 In         6.7460021816        3.8870689792        8.7698604619
 In         5.0535125800        6.8185423346        8.7698597771
 In        -0.0001144114        1.9465117009       17.5092913663
 In        -1.6857826669        4.8673029004       17.5081885504
 In        -3.3708156845        7.7858756454       17.5081865911
 In         3.3715656094        1.9426800998       17.5205136074
 In         1.6824066211        4.8683869361       17.5205065597
 In        -0.0007506471        7.7858681966       17.5081939861
 In         6.7432492178        1.9465108633       17.5092969936
 In         5.0607279707        4.8683861432       17.5205031808
 In         3.3715662415        7.7864330222       17.5092977786
 Ga         0.0003260552       -0.0001929248       20.5793046790
 Ga        -1.6857911283        2.9202424689       20.5793047146
 Ga        -3.3717082293        5.8396460598       20.5801669061
 Ga         3.3715720628        0.0001613537       20.5801615872
 Ga         1.6857145020        2.9198178569       20.5801320223
 Ga         0.0001420059        5.8396504757       20.5801633195
 Ga         6.7428089927       -0.0001888179       20.5792987541
 Ga         5.0574250059        2.9198189318       20.5801279704
 Ga         3.3715686794        5.8398111175       20.5801324082
 Ga         1.6861771678        0.9736416656        3.1260820647
 Ga         0.0005138694        3.8933107377        3.1260779755
 Ga        -1.6857846352        6.8130175114        3.1265951634
 Ga         5.0569636009        0.9736442631        3.1260833165
 Ga         3.3715717262        3.8931542461        3.1268979885
 Ga         1.6858986736        6.8124911581        3.1260845831
 Ga         8.4289182580        0.9732877606        3.1250318431
 Ga         6.7426267298        3.8933124178        3.1260763028
 Ga         5.0572384365        6.8124970926        3.1260811024
 Ga         0.0007569675        1.9470033274       11.8473856452
 Ga        -1.6857906738        4.8716756794       11.8492312380
 Ga        -3.3670352476        7.7836856221       11.8492280387
 Ga         3.3715916286        1.9129830026       11.8440797635
 Ga         1.6566315026        4.8832691021       11.8440834059
 Ga        -0.0045341184        7.7836887298       11.8492304409
 Ga         6.7423869922        1.9470035277       11.8473833096
 Ga         5.0864637475        4.8832229628       11.8440807260
 Ga         3.3715753776        7.7854345837       11.8473842390
  O         0.0003487388       -0.0002012964        3.1543483723
  O        -1.6857832188        2.9202689517        3.1543518379
  O        -3.3716011113        5.8397099940        3.1540970711
  O         3.3715702795        0.0000400632        3.1540967867
  O         1.6862254638        2.9201102428        3.1540746177
  O         0.0000307310        5.8397102202        3.1540971003
  O         6.7427861874       -0.0002071776        3.1543479120
  O         5.0569143883        2.9201121617        3.1540746275
  O         3.3715694438        5.8392257697        3.1540730408
  O         1.6862476998        0.9660200228       11.8783519136
  O        -0.0060931790        3.8971677320       11.8783424163
  O        -1.6857806392        6.8130142744       11.8732552684
  O         5.0569110817        0.9660092931       11.8783528350
  O         1.6792602957        6.8162803231       11.8783451476
  O         8.4289237108        0.9732864179       11.8732262081
  O         6.7492186396        3.8971701247       11.8783546950
  O         5.0638772522        6.8162498963       11.8783557845
  O        -0.0001054930        1.9465178806       20.5950578409
  O        -1.6857829631        4.8667977645       20.5958185154
  O        -3.3712557064        7.7861238299       20.5958195459
  O         3.3715694680        1.9467471785       20.5957268295
  O         1.6859358923        4.8663510020       20.5957215460
  O        -0.0003064373        7.7861266554       20.5958246369
  O         6.7432382742        1.9465126240       20.5950671163
  O         5.0572015997        4.8663527207       20.5957221963
  O         3.3715657780        7.7864197473       20.5950653987
  O        -0.0023419411        0.0013515790        7.6951259560
  O        -1.6857903196        2.9171639271        7.6951303290
  O        -3.3839363860        5.8325872937        7.7059714644
  O         3.3715659699        0.0142787985        7.7059722730
  O         1.6800413228        2.9165488770        7.6928443837
  O         0.0123682297        5.8325897111        7.7059733108
  O         6.7454715409        0.0013498576        7.6951263792
  O         5.0630921045        2.9165487421        7.6928440017
  O         3.3715655279        5.8463570889        7.6928449159
  O         1.6911985395        0.9769589494       16.4182298220
  O         0.0058844117        3.8960035624       16.4182291453
  O        -1.6857816716        6.8130165875       16.4285433795
  O         5.0519379600        0.9769567795       16.4182276911
  O         3.3715695165        3.8931491973       16.4468604758
  O         1.6862559904        6.8064907121       16.4182288573
  O         8.4289194859        0.9732839958       16.4229732380
  O         6.7372510960        3.8960054573       16.4182291600
  O         5.0568825207        6.8064956334       16.4182296866
  O        -0.0001641858        1.9464874362       25.1478802943
  O        -1.6857833263        4.8663046288       25.1478780128
  O        -3.3716798047        7.7863696902       25.1478734975
  O         3.3715688558        1.9465702581       25.1477051219
  O         1.6857797773        4.8664377269       25.1477049252
  O         0.0001116609        7.7863703002       25.1478720839
  O         6.7433010913        1.9464829460       25.1478787489
  O         5.0573550362        4.8664396460       25.1477047615
  O         3.3715705238        7.7864874545       25.1478772212
  O         0.0016475103       -0.0009459603       18.5942906948
  O        -1.6857789518        2.9217632840       18.5942892523
  O        -3.3710038611        5.8400581746       18.5965391550
  O         3.3715660160       -0.0006544811       18.5965354303
  O         1.6850207113        2.9194267714       18.5960755670
  O        -0.0005670662        5.8400507783       18.5965408631
  O         6.7414887980       -0.0009501802       18.5942833577
  O         5.0581087983        2.9194307348       18.5960720517
  O         3.3715702605        5.8405981345       18.5960712840
  O         1.6855608093        0.9732613676        1.1470820483
  O        -0.0001383161        3.8929794081        1.1470801490
  O        -1.6857842330        6.8130143213        1.1472424512
  O         5.0575718073        0.9732598052        1.1470823468
  O         3.3715647842        3.8931495376        1.1473646770
  O         1.6858666555        6.8132185278        1.1470822034
  O         8.4289214750        0.9732884875        1.1466226487
  O         6.7432716704        3.8929776236        1.1470785134
  O         5.0572660728        6.8132214108        1.1470832736
  O         0.0043699672        1.9491018589        9.8721022211
  O        -1.6857826095        4.8646301485        9.8685144385
  O        -3.3731384283        7.7872098374        9.8685130669
  O         3.3715675829        2.0360998006        9.9051894130
  O         1.7633060064        4.8216752679        9.9051900321
  O         0.0015688352        7.7872061237        9.8685132599
  O         6.7387622696        1.9491026016        9.8720973598
  O         4.9798140635        4.8216761046        9.9051923000
  O         3.3715627312        7.7812595239        9.8720989394
  O        -0.0000619076        0.0000335321       22.5807476638
  O        -1.6857847825        2.9197931976       22.5807485063
  O        -3.3716744739        5.8396617984       22.5811178266
  O         3.3715700794        0.0001284432       22.5811115255
  O         1.6858586882        2.9199041850       22.5809271443
  O         0.0001082694        5.8396614372       22.5811107430
  O         6.7432003251        0.0000340219       22.5807453888
  O         5.0572769798        2.9199010916       22.5809224531
  O         3.3715680193        5.8396448297       22.5809301651
  O         1.6860817664        0.9731491733        5.1356350394
  O         0.0000242341        3.8934739488        5.1356300378
  O        -1.6857832435        6.8130144049        5.1373257180
  O         5.0570574170        0.9731486380        5.1356322966
  O         3.3715694246        3.8931528644        5.1384544052
  O         1.6855216654        6.8128263396        5.1356337361
  O         8.4289222914        0.9732910964        5.1328966807
  O         6.7431160919        3.8934762619        5.1356309036
  O         5.0576219523        6.8128288130        5.1356351063
  O         0.0031282816        1.9483830997       13.8453381872
  O        -1.6857810737        4.8668971437       13.8531043519
  O        -3.3711715165        7.7860743222       13.8531017150
  O         3.3715666342        2.0085355042       13.8109930509
  O         1.7394338916        4.8354613854       13.8109965122
  O        -0.0003960102        7.7860742660       13.8531038953
  O         6.7400111064        1.9483826827       13.8453347343
  O         5.0036962726        4.8354614871       13.8109925331
  O         3.3715672858        7.7826910887       13.8453383584
     188
 i =        3, E =     -6889.1461352377
 Zn        -0.0012101810        0.0006985106        5.6885256459
 Zn        -1.6857834596        2.9184648684        5.6885304512
 Zn        -3.3729609982        5.8389245417        5.6931735035
 Zn         3.3715672173        0.0016095897        5.6931745588
 Zn         1.6816167091        2.9174554939        5.6762786437
 Zn         0.0013937634        5.8389238715        5.6931713820
 Zn         6.7443485193        0.0006980551        5.6885263834
 Zn         5.0615196187        2.9174564233        5.6762763773
 Zn         3.3715685969        5.8445415626        5.6762824273
 Zn         1.6827254343        0.9759497809       14.4226052614
 Zn         0.0007720574        3.8891716635       14.4226078362
 Zn        -1.6857839020        6.8130142648       14.4369966280
 Zn         5.0604128773        0.9759462117       14.4226082251
 Zn         3.3715649130        3.8931518962       14.5209959764
 Zn         1.6896156325        6.8143359797       14.4226080993
 Zn         8.4289194075        0.9732883269       14.4249656849
 Zn         6.7423657161        3.8891718695       14.4226076433
 Zn         5.0535197452        6.8143343432       14.4226028843
 Zn        -0.0000929008        1.9465228695       23.1479327424
 Zn        -1.6857848591        4.8664424727       23.1479497631
 Zn        -3.3715653547        7.7862982763       23.1479460885
 Zn         3.3715691791        1.9466577089       23.1481708821
 Zn         1.6858559765        4.8663981263       23.1481715993
 Zn        -0.0000026535        7.7863000058       23.1479471997
 Zn         6.7432309550        1.9465227531       23.1479317223
 Zn         5.0572820020        4.8663993910       23.1481725072
 Zn         3.3715702044        7.7864083586       23.1479316897
 In         0.0001036396       -0.0000595181        0.0530888441
 In        -1.6857847343        2.9199843390        0.0530919139
 In        -3.3715519619        5.8397363537        0.0531685001
 In         3.3715683045       -0.0000175441        0.0531750632
 In         1.6857287402        2.9198309262        0.0528993420
 In        -0.0000165984        5.8397381547        0.0531688449
 In         6.7430319378       -0.0000616717        0.0530925551
 In         5.0574068714        2.9198309385        0.0528990935
 In         3.3715674762        5.8397905796        0.0528999238
 In         1.6787171500        0.9751712724        8.7730149975
 In        -0.0019082495        3.8860877991        8.7730126902
 In        -1.6857839885        6.8130154146        8.7675656844
 In         5.0644167385        0.9751695056        8.7730116093
 In         3.3715678864        3.8931511882        8.6636365672
 In         1.6909473687        6.8181957988        8.7730128382
 In         8.4289176627        0.9732901017        8.7740799578
 In         6.7450378496        3.8860912398        8.7730145208
 In         5.0521848397        6.8181921028        8.7730144052
 In         0.0003809614        1.9467960496       17.5097437251
 In        -1.6857836720        4.8666821356       17.5084699616
 In        -3.3713561336        7.7861836148       17.5084688867
 In         3.3715664771        1.9392740691       17.5321557410
 In         1.6794592685        4.8700903025       17.5321537354
 In        -0.0002115042        7.7861807832       17.5084675054
 In         6.7427537711        1.9467963682       17.5097435551
 In         5.0636754304        4.8700910886       17.5321519901
 In         3.3715676075        7.7858621757       17.5097473207
 Ga         0.0000809354       -0.0000485230       20.5787950581
 Ga        -1.6857832618        2.9199572006       20.5787960682
 Ga        -3.3709813853        5.8400651007       20.5810103659
 Ga         3.3715690400       -0.0006757812       20.5810092728
 Ga         1.6852233867        2.9195392530       20.5814742935
 Ga        -0.0005848966        5.8400614456       20.5810086060
 Ga         6.7430569464       -0.0000463245       20.5787967118
 Ga         5.0579112147        2.9195379819       20.5814741950
 Ga         3.3715690357        5.8403726069       20.5814751181
 Ga         1.6860539606        0.9726586588        3.1223889083
 Ga        -0.0004096875        3.8936971966        3.1223889949
 Ga        -1.6857810778        6.8130104300        3.1246082293
 Ga         5.0570841613        0.9726575762        3.1223908180
 Ga         3.3715719508        3.8931492443        3.1227530670
 Ga         1.6851079528        6.8130974552        3.1223900157
 Ga         8.4289238518        0.9732848882        3.1220709281
 Ga         6.7435500951        3.8936999202        3.1223887704
 Ga         5.0580313603        6.8130981530        3.1223889553
 Ga        -0.0008316234        1.9460828617       11.8486337165
 Ga        -1.6857971027        4.8730670471       11.8513031106
 Ga        -3.3658285466        7.7829932222       11.8513023850
 Ga         3.3716130295        1.8813546733       11.8379116548
 Ga         1.6291302675        4.8991454531       11.8379133883
 Ga        -0.0057477820        7.7829998358       11.8513029370
 Ga         6.7439823039        1.9460862612       11.8486349214
 Ga         5.1138661887        4.8990222479       11.8379131814
 Ga         3.3715790534        7.7872700851       11.8486347266
  O         0.0000871818       -0.0000485780        3.1556109099
  O        -1.6857828270        2.9199567903        3.1556206375
  O        -3.3712449306        5.8399148251        3.1562036379
  O         3.3715686346       -0.0003763631        3.1562049562
  O         1.6860177060        2.9199969085        3.1573981809
  O        -0.0003186317        5.8399131223        3.1562034358
  O         6.7430545149       -0.0000484901        3.1556098166
  O         5.0571247944        2.9199966078        3.1573964103
  O         3.3715700281        5.8394573584        3.1573976666
  O         1.6827684823        0.9594623931       11.8735012596
  O        -0.0135504541        3.8974177754       11.8735020796
  O        -1.6857814638        6.8130121854       11.8699223330
  O         5.0604113464        0.9594457234       11.8735019443
  O         1.6753141221        6.8226139314       11.8735021304
  O         8.4289259531        0.9732845145       11.8698962964
  O         6.7566528808        3.8974247382       11.8735014041
  O         5.0678205280        6.8225457571       11.8735004022
  O        -0.0005450342        1.9462599623       20.5971833841
  O        -1.6857849765        4.8662637633       20.5983038721
  O        -3.3717173333        7.7863890643       20.5983011881
  O         3.3715667995        1.9464077139       20.5967175126
  O         1.6856425944        4.8665216024       20.5967129468
  O         0.0001531196        7.7863883900       20.5982997926
  O         6.7436833923        1.9462604090       20.5971834795
  O         5.0574985329        4.8665229238       20.5967132226
  O         3.3715687561        7.7869296066       20.5971874363
  O         0.0005816997       -0.0003346461        7.7012530078
  O        -1.6857860849        2.9205384187        7.7012521185
  O        -3.3904872617        5.8288081426        7.7135047853
  O         3.3715663345        0.0218420603        7.7135043386
  O         1.6737041986        2.9128913008        7.6880537278
  O         0.0189230860        5.8287990755        7.7135017723
  O         6.7425546099       -0.0003386883        7.7012526641
  O         5.0694401692        2.9128858691        7.6880516867
  O         3.3715655228        5.8536727239        7.6880563950
  O         1.6939058075        0.9785278904       16.4136632628
  O         0.0085985224        3.8975627084       16.4136646821
  O        -1.6857840997        6.8130126971       16.4277285565
  O         5.0492305253        0.9785316062       16.4136645436
  O         3.3715672998        3.8931497818       16.4572983213
  O         1.6862660732        6.8033631139       16.4136649069
  O         8.4289192543        0.9732860881       16.4191237287
  O         6.7345381275        3.8975635268       16.4136642830
  O         5.0568735910        6.8033657262       16.4136603893
  O         0.0001270222        1.9466496264       25.1481995208
  O        -1.6857831123        4.8665115291       25.1482481577
  O        -3.3715035774        7.7862677137       25.1482457361
  O         3.3715675250        1.9467516533       25.1483403923
  O         1.6859377730        4.8663486239       25.1483449821
  O        -0.0000644256        7.7862675876       25.1482450751
  O         6.7430069019        1.9466494303       25.1481958938
  O         5.0571970483        4.8663502180       25.1483468925
  O         3.3715682712        7.7861524452       25.1481946949
  O         0.0017563268       -0.0010151851       18.5911886779
  O        -1.6857880559        2.9218916912       18.5911880536
  O        -3.3689501569        5.8412390815       18.5963690198
  O         3.3715708373       -0.0030206223       18.5963687315
  O         1.6829676447        2.9182376302       18.5968368913
  O        -0.0026182698        5.8412405076       18.5963696530
  O         6.7413766601       -0.0010142415       18.5911884148
  O         5.0601688684        2.9182356067       18.5968376370
  O         3.3715674449        5.8429813856       18.5968362390
  O         1.6858678070        0.9737408388        1.1450027988
  O         0.0004326116        3.8929992097        1.1450039469
  O        -1.6857855597        6.8130167010        1.1457544311
  O         5.0572683256        0.9737395749        1.1450043750
  O         3.3715677431        3.8931530342        1.1446229716
  O         1.6861330730        6.8127155215        1.1450020222
  O         8.4289193789        0.9732898893        1.1449716474
  O         6.7427034361        3.8929980943        1.1450038094
  O         5.0570042950        6.8127167819        1.1450025976
  O         0.0046572331        1.9492637200        9.8740043647
  O        -1.6857886223        4.8657096835        9.8682759629
  O        -3.3722094502        7.7866704424        9.8682770938
  O         3.3715695845        2.0534297950        9.9217685159
  O         1.7783070912        4.8130197303        9.9217770039
  O         0.0006333238        7.7866709379        9.8682765026
  O         6.7384735842        1.9492656688        9.8740054850
  O         4.9648142837        4.8130090678        9.9217732554
  O         3.3715675575        7.7809247741        9.8740053434
  O         0.0000342420       -0.0000183467       22.5788102708
  O        -1.6857833135        2.9199042258       22.5788111923
  O        -3.3717861151        5.8395996945       22.5798486570
  O         3.3715668427        0.0002532279       22.5798470066
  O         1.6858250907        2.9198868154       22.5798290154
  O         0.0002175782        5.8395994407       22.5798448576
  O         6.7431028767       -0.0000199306       22.5788132667
  O         5.0573125662        2.9198875298       22.5798267670
  O         3.3715687970        5.8396805682       22.5798303160
  O         1.6861330840        0.9711611100        5.1335929631
  O        -0.0016689749        3.8945193995        5.1335923554
  O        -1.6857854557        6.8130171115        5.1403887657
  O         5.0569992417        0.9711606389        5.1335931468
  O         3.3715646422        3.8931554013        5.1388321535
  O         1.6837672873        6.8137763829        5.1335921420
  O         8.4289188564        0.9732900826        5.1312276544
  O         6.7448022538        3.8945179654        5.1335936415
  O         5.0593673366        6.8137740835        5.1335937908
  O         0.0038253104        1.9487855160       13.8416262121
  O        -1.6857829391        4.8683264860       13.8552456437
  O        -3.3699356929        7.7853622995       13.8552428921
  O         3.3715709163        2.0317700757       13.7837578089
  O         1.7595580958        4.8238455923       13.7837527662
  O        -0.0016335426        7.7853607108       13.8552450742
  O         6.7393096348        1.9487868079       13.8416249231
  O         4.9835739425        4.8238405333       13.7837588075
  O         3.3715662304        7.7818842395       13.8416265277
     188
 i =        4, E =     -6889.1472376568
 Zn        -0.0011154425        0.0006425804        5.6896925854
 Zn        -1.6857864302        2.9185774238        5.6896898850
 Zn        -3.3740750407        5.8382833775        5.6942748260
 Zn         3.3715645489        0.0028921002        5.6942743217
 Zn         1.6794368464        2.9162007226        5.6710948322
 Zn         0.0025037322        5.8382831448        5.6942744693
 Zn         6.7442483627        0.0006454045        5.6896927827
 Zn         5.0636947844        2.9162001018        5.6710912768
 Zn         3.3715643673        5.8470552049        5.6710957634
 Zn         1.6798829643        0.9754913899       14.4229456980
 Zn        -0.0010524613        3.8869356102       14.4229582799
 Zn        -1.6857874108        6.8130167954       14.4400861655
 Zn         5.0632617605        0.9754863350       14.4229557743
 Zn         3.3715573713        3.8931573528       14.5388766166
 Zn         1.6906415502        6.8170349757       14.4229581995
 Zn         8.4289200951        0.9732869641       14.4237665579
 Zn         6.7441876067        3.8869351605       14.4229561482
 Zn         5.0524944111        6.8170263811       14.4229461326
 Zn        -0.0004769270        1.9463004427       23.1487903766
 Zn        -1.6857843707        4.8660831713       23.1489292844
 Zn        -3.3718774592        7.7864810626       23.1489309011
 Zn         3.3715693750        1.9465326121       23.1494727519
 Zn         1.6857471308        4.8664616304       23.1494755815
 Zn         0.0003086993        7.7864811231       23.1489307740
 Zn         6.7436152695        1.9463006966       23.1487899113
 Zn         5.0573907047        4.8664621025       23.1494759081
 Zn         3.3715686911        7.7868541002       23.1487886916
 In        -0.0000499227        0.0000282355        0.0509108701
 In        -1.6857846198        2.9198054397        0.0509108937
 In        -3.3713398578        5.8398596240        0.0511832793
 In         3.3715680266       -0.0002645304        0.0511854512
 In         1.6857197962        2.9198262651        0.0502112656
 In        -0.0002288402        5.8398584891        0.0511835158
 In         6.7431856699        0.0000301246        0.0509115873
 In         5.0574171733        2.9198256287        0.0502113054
 In         3.3715689843        5.8398015431        0.0502118386
 In         1.6768931858        0.9744731204        8.7758857857
 In        -0.0034219029        3.8848593947        8.7758753294
 In        -1.6857840350        6.8130140433        8.7673488738
 In         5.0662452132        0.9744714812        8.7758751840
 In         3.3715641112        3.8931514238        8.6576271399
 In         1.6912529628        6.8201253248        8.7758752073
 In         8.4289191329        0.9732865929        8.7687283328
 In         6.7465556486        3.8848584954        8.7758773594
 In         5.0518801565        6.8201222840        8.7758863025
 In         0.0007217192        1.9469910257       17.5061645057
 In        -1.6857864945        4.8660412633       17.5044285402
 In        -3.3719140878        7.7865006895       17.5044273928
 In         3.3715676857        1.9376137655       17.5402310309
 In         1.6780234585        4.8709214365       17.5402341972
 In         0.0003456544        7.7865039824       17.5044254037
 In         6.7424123811        1.9469927142       17.5061630174
 In         5.0651128113        4.8709233120       17.5402317995
 In         3.3715690620        7.7854690627       17.5061645460
 Ga         0.0000457664       -0.0000243224       20.5803663545
 Ga        -1.6857831218        2.9199154016       20.5803665645
 Ga        -3.3706478474        5.8402568431       20.5839505811
 Ga         3.3715663025       -0.0010616583       20.5839524613
 Ga         1.6845237146        2.9191374414       20.5849719547
 Ga        -0.0009212488        5.8402581857       20.5839509437
 Ga         6.7430905777       -0.0000268462       20.5803689496
 Ga         5.0586131027        2.9191370092       20.5849726617
 Ga         3.3715663588        5.8411820285       20.5849717903
 Ga         1.6858146991        0.9717023030        3.1228134979
 Ga        -0.0013587652        3.8939727666        3.1228152052
 Ga        -1.6857848554        6.8130161406        3.1262899795
 Ga         5.0573211252        0.9717031612        3.1228136255
 Ga         3.3715655718        3.8931528334        3.1227442824
 Ga         1.6843930468        6.8137811103        3.1228130215
 Ga         8.4289200184        0.9732897272        3.1237305920
 Ga         6.7444931883        3.8939694599        3.1228157157
 Ga         5.0587435308        6.8137791927        3.1228132502
 Ga        -0.0030900693        1.9447962522       11.8471963694
 Ga        -1.6858054898        4.8744798919       11.8515031837
 Ga        -3.3646020203        7.7822839535       11.8515028373
 Ga         3.3716012166        1.8435804580       11.8345808061
 Ga         1.5965134911        4.9179758144       11.8345757762
 Ga        -0.0069740340        7.7823024053       11.8515030436
 Ga         6.7462423978        1.9447833249       11.8471974936
 Ga         5.1465704214        4.9179194283       11.8345811459
 Ga         3.3715622769        7.7898687081       11.8471961886
  O        -0.0002139541        0.0001225897        3.1519251737
  O        -1.6857831128        2.9196169821        3.1519250565
  O        -3.3706247577        5.8402675072        3.1534656401
  O         3.3715688963       -0.0010858090        3.1534645649
  O         1.6859289320        2.9199473727        3.1560375239
  O        -0.0009413594        5.8402706547        3.1534648885
  O         6.7433516699        0.0001230421        3.1519245574
  O         5.0572053659        2.9199486760        3.1560379112
  O         3.3715687679        5.8395600099        3.1560367871
  O         1.6771706523        0.9510818508       11.8744902744
  O        -0.0235762250        3.8967995910       11.8744903430
  O        -1.6857794412        6.8130128113       11.8740832664
  O         5.0659973663        0.9510790390       11.8744892806
  O         1.6708362391        6.8316046459       11.8744905878
  O         8.4289303223        0.9732816525       11.8738323474
  O         6.7666919217        3.8967725622       11.8744885090
  O         5.0722781209        6.8315842488       11.8744909789
  O        -0.0012861576        1.9458332584       20.5944230467
  O        -1.6857839748        4.8659857872       20.5954534470
  O        -3.3719595400        7.7865270807       20.5954543846
  O         3.3715684964        1.9463840257       20.5925962108
  O         1.6856180737        4.8665355586       20.5925975447
  O         0.0003911348        7.7865289598       20.5954541353
  O         6.7444252803        1.9458313123       20.5944225971
  O         5.0575181948        4.8665367332       20.5925975114
  O         3.3715696267        7.7877885527       20.5944221466
  O        -0.0003451237        0.0001991473        7.7035776791
  O        -1.6857826595        2.9194680728        7.7035736427
  O        -3.3963743034        5.8254153043        7.7208705218
  O         3.3715619673        0.0286374075        7.7208688573
  O         1.6732321808        2.9126208907        7.6888143687
  O         0.0248082650        5.8254012634        7.7208674420
  O         6.7434805204        0.0001956250        7.7035758262
  O         5.0699148878        2.9126109528        7.6888087818
  O         3.3715636879        5.8542164390        7.6888155403
  O         1.6969426636        0.9806245786       16.4107492830
  O         0.0119373898        3.8991453787       16.4107562560
  O        -1.6857835653        6.8130133859       16.4269449303
  O         5.0461910071        0.9806295836       16.4107532339
  O         3.3715649042        3.8931538262       16.4683432431
  O         1.6865618306        6.7996809547       16.4107547997
  O         8.4289204093        0.9732898681       16.4156894983
  O         6.7311991770        3.8991462453       16.4107541643
  O         5.0565770381        6.7996827936       16.4107485680
  O         0.0001228803        1.9466442906       25.1480509099
  O        -1.6857841469        4.8664759245       25.1483338487
  O        -3.3715381489        7.7862850184       25.1483351388
  O         3.3715678670        1.9464858093       25.1484173877
  O         1.6857052540        4.8664852671       25.1484194943
  O        -0.0000301018        7.7862844799       25.1483354252
  O         6.7430114077        1.9466467093       25.1480501933
  O         5.0574309362        4.8664844441       25.1484199489
  O         3.3715674519        7.7861612449       25.1480498611
  O         0.0020216769       -0.0011687438       18.5886959142
  O        -1.6857866829        2.9221975496       18.5886946902
  O        -3.3674859907        5.8420825308       18.5967772377
  O         3.3715694062       -0.0047123941       18.5967791948
  O         1.6806989090        2.9169279976       18.5987934418
  O        -0.0040823463        5.8420844613       18.5967772532
  O         6.7411150159       -0.0011668522       18.5886972860
  O         5.0624371762        2.9169267073       18.5987953200
  O         3.3715671285        5.8456004885       18.5987941320
  O         1.6860994399        0.9739697690        1.1460405673
  O         0.0007470287        3.8930811291        1.1460427974
  O        -1.6857830374        6.8130143214        1.1467022265
  O         5.0570376587        0.9739686390        1.1460408980
  O         3.3715699754        3.8931506681        1.1457498534
  O         1.6862184535        6.8124039799        1.1460393540
  O         8.4289204526        0.9732869365        1.1461878795
  O         6.7423901403        3.8930821471        1.1460429752
  O         5.0569193679        6.8124031489        1.1460395753
  O         0.0045245739        1.9491881580        9.8739634199
  O        -1.6857877438        4.8692492011        9.8672025130
  O        -3.3691381502        7.7849006718        9.8672060653
  O         3.3715811628        2.0597932699        9.9369318832
  O         1.7837986295        4.8098510563        9.9369562506
  O        -0.0024366170        7.7849009988        9.8672030897
  O         6.7386151930        1.9491849835        9.8739638987
  O         4.9593094259        4.8098193972        9.9369355868
  O         3.3715686272        7.7810752257        9.8739645156
  O         0.0000368322       -0.0000194381       22.5794452438
  O        -1.6857827047        2.9199053355       22.5794461840
  O        -3.3718099320        5.8395889439       22.5811446572
  O         3.3715671099        0.0002779396       22.5811444132
  O         1.6858431700        2.9198987447       22.5810510602
  O         0.0002418006        5.8395876833       22.5811431490
  O         6.7430992958       -0.0000204238       22.5794481742
  O         5.0572941863        2.9198995557       22.5810497968
  O         3.3715688342        5.8396573510       22.5810510178
  O         1.6863328025        0.9696304895        5.1345448173
  O        -0.0028943754        3.8954605932        5.1345452796
  O        -1.6857849617        6.8130151702        5.1475051555
  O         5.0567981588        0.9696290514        5.1345444189
  O         3.3715653832        3.8931526010        5.1417902838
  O         1.6823375876        6.8143708464        5.1345438139
  O         8.4289183962        0.9732870147        5.1341961847
  O         6.7460255832        3.8954593335        5.1345460894
  O         5.0607927525        6.8143667318        5.1345449904
  O         0.0047777632        1.9493341115       13.8368799120
  O        -1.6857851837        4.8691901679       13.8574482271
  O        -3.3691906817        7.7849320322       13.8574424210
  O         3.3715780149        2.0467526168       13.7600958564
  O         1.7725193230        4.8163629434       13.7600659780
  O        -0.0023820919        7.7849293969       13.8574477489
  O         6.7383603446        1.9493342557       13.8368807956
  O         4.9706018083        4.8163450369       13.7600958638
  O         3.3715674756        7.7807847682       13.8368780341
     188
 i =        5, E =     -6889.1470622550
 Zn        -0.0005336144        0.0003057792        5.6899739805
 Zn        -1.6857874390        2.9192513089        5.6899670293
 Zn        -3.3749753234        5.8377626033        5.6952314138
 Zn         3.3715638924        0.0039302495        5.6952299591
 Zn         1.6792290848        2.9160840421        5.6683809358
 Zn         0.0034021689        5.8377637667        5.6952310394
 Zn         6.7436643238        0.0003104660        5.6899690675
 Zn         5.0639007733        2.9160821509        5.6683780397
 Zn         3.3715626049        5.8472921305        5.6683789040
 Zn         1.6773461950        0.9748783110       14.4243548048
 Zn        -0.0028581051        3.8850485248       14.4243678702
 Zn        -1.6857878869        6.8130166847       14.4436110849
 Zn         5.0658003158        0.9748775730       14.4243679188
 Zn         3.3715616796        3.8931563586       14.5411362225
 Zn         1.6913733292        6.8195411858       14.4243657325
 Zn         8.4289243698        0.9732858993       14.4218147347
 Zn         6.7459843651        3.8850428001       14.4243712086
 Zn         5.0517571266        6.8195292550       14.4243565262
 Zn        -0.0010837610        1.9459490303       23.1492638608
 Zn        -1.6857828452        4.8656486453       23.1496608291
 Zn        -3.3722536609        7.7867000590       23.1496630612
 Zn         3.3715685852        1.9462183266       23.1505614132
 Zn         1.6854733664        4.8666193471       23.1505640830
 Zn         0.0006842171        7.7866983071       23.1496622728
 Zn         6.7442231677        1.9459492552       23.1492616968
 Zn         5.0576634438        4.8666194352       23.1505628115
 Zn         3.3715680442        7.7875576998       23.1492616313
 In        -0.0002352066        0.0001351625        0.0511391041
 In        -1.6857834744        2.9195914766        0.0511371912
 In        -3.3709802515        5.8400657991        0.0514384259
 In         3.3715677271       -0.0006790366        0.0514358300
 In         1.6858304819        2.9198893420        0.0498460665
 In        -0.0005861283        5.8400650337        0.0514385109
 In         6.7433714576        0.0001359213        0.0511372875
 In         5.0573062515        2.9198901532        0.0498474580
 In         3.3715679220        5.8396762873        0.0498470749
 In         1.6754096726        0.9745800510        8.7775159639
 In        -0.0040718841        3.8835238525        8.7775023944
 In        -1.6857852447        6.8130138705        8.7666518206
 In         5.0677277097        0.9745828764        8.7774987927
 In         3.3715709361        3.8931493586        8.6676199540
 In         1.6920847292        6.8213541730        8.7775035371
 In         8.4289250776        0.9732857531        8.7612840528
 In         6.7472029360        3.8835189092        8.7774984073
 In         5.0510465528        6.8213530928        8.7775171662
 In         0.0009538036        1.9471248953       17.5028348567
 In        -1.6857850245        4.8655975430       17.5006227765
 In        -3.3722965640        7.7867222820       17.5006215748
 In         3.3715658346        1.9374071325       17.5486444034
 In         1.6778426730        4.8710243888       17.5486512494
 In         0.0007285685        7.7867251183       17.5006248766
 In         6.7421831823        1.9471271457       17.5028387401
 In         5.0652901050        4.8710249915       17.5486462724
 In         3.3715693277        7.7852044911       17.5028359451
 Ga         0.0000565785       -0.0000326372       20.5798647257
 Ga        -1.6857861924        2.9199297562       20.5798636195
 Ga        -3.3703865478        5.8404101669       20.5850536168
 Ga         3.3715689638       -0.0013665346       20.5850530996
 Ga         1.6839526933        2.9188076839       20.5871631344
 Ga        -0.0011848701        5.8404151405       20.5850538927
 Ga         6.7430769203       -0.0000325817       20.5798632845
 Ga         5.0591860717        2.9188065378       20.5871611848
 Ga         3.3715663952        5.8418427713       20.5871615873
 Ga         1.6858210995        0.9713647847        3.1219572034
 Ga        -0.0016482567        3.8941469728        3.1219565345
 Ga        -1.6857863797        6.8130181123        3.1255753250
 Ga         5.0573150419        0.9713647644        3.1219562904
 Ga         3.3715655278        3.8931538406        3.1214603887
 Ga         1.6840961378        6.8139460373        3.1219561178
 Ga         8.4289173227        0.9732883481        3.1232690657
 Ga         6.7447800411        3.8941441732        3.1219570388
 Ga         5.0590345574        6.8139432079        3.1219584613
 Ga        -0.0057992282        1.9432325656       11.8468374096
 Ga        -1.6857892205        4.8761405676       11.8524618373
 Ga        -3.3631656003        7.7814510230       11.8524614350
 Ga         3.3715736140        1.7927102458       11.8331884278
 Ga         1.5525694565        4.9433521622       11.8331813263
 Ga        -0.0084023798        7.7814571840       11.8524609940
 Ga         6.7489409382        1.9432236464       11.8468357438
 Ga         5.1905990250        4.9433627850       11.8331864118
 Ga         3.3715639922        7.7929962590       11.8468348177
  O        -0.0002173862        0.0001250092        3.1532665004
  O        -1.6857839886        2.9196135860        3.1532675897
  O        -3.3696147216        5.8408533856        3.1550973304
  O         3.3715692555       -0.0022534210        3.1550957708
  O         1.6861440730        2.9200712798        3.1580633563
  O        -0.0019545567        5.8408548288        3.1550953011
  O         6.7433531597        0.0001249042        3.1532666912
  O         5.0569902535        2.9200706287        3.1580656865
  O         3.3715662447        5.8393126858        3.1580631672
  O         1.6681652616        0.9393050889       11.8751705764
  O        -0.0382324661        3.8949030175       11.8751680213
  O        -1.6857839217        6.8130168919       11.8774565527
  O         5.0749797750        0.9393094623       11.8751694870
  O         1.6651519152        6.8452505698       11.8751688907
  O         8.4289247744        0.9732847119       11.8753601991
  O         6.7813749840        3.8948756577       11.8751704389
  O         5.0779730955        6.8452629411       11.8751731908
  O        -0.0021456761        1.9453373966       20.5940808253
  O        -1.6857828801        4.8656969328       20.5954281239
  O        -3.3722103397        7.7866744674       20.5954286547
  O         3.3715699713        1.9463206850       20.5910003471
  O         1.6855616028        4.8665679107       20.5909969657
  O         0.0006439837        7.7866758803       20.5954343191
  O         6.7452824002        1.9453354042       20.5940885442
  O         5.0575722784        4.8665662577       20.5909961856
  O         3.3715672820        7.7887810068       20.5940858034
  O        -0.0011139691        0.0006413265        7.7032240149
  O        -1.6857832530        2.9185755610        7.7032181475
  O        -3.4011572633        5.8226586068        7.7274449455
  O         3.3715564779        0.0341589635        7.7274425824
  O         1.6768445464        2.9147098690        7.6938971986
  O         0.0295877146        5.8226446789        7.7274411241
  O         6.7442505853        0.0006420430        7.7032177808
  O         5.0662982253        2.9146977594        7.6938877607
  O         3.3715590808        5.8500452177        7.6938955004
  O         1.6999326035        0.9831231744       16.4084639802
  O         0.0156019032        3.9004851952       16.4084680531
  O        -1.6857829407        6.8130153239       16.4266894577
  O         5.0431999872        0.9831287674       16.4084684405
  O         3.3715625814        3.8931564863       16.4723214770
  O         1.6872308272        6.7958396203       16.4084658303
  O         8.4289204703        0.9732901723       16.4117434100
  O         6.7275352159        3.9004867233       16.4084709560
  O         5.0559087208        6.7958405633       16.4084659477
  O        -0.0000094518        1.9465700783       25.1473591601
  O        -1.6857838311        4.8659977331       25.1478954461
  O        -3.3719512054        7.7865218617       25.1478963060
  O         3.3715693767        1.9462619050       25.1477863463
  O         1.6855110338        4.8665967726       25.1477852607
  O         0.0003819984        7.7865219467       25.1478971447
  O         6.7431461717        1.9465718222       25.1473598067
  O         5.0576261910        4.8665970599       25.1477838093
  O         3.3715689693        7.7863154254       25.1473602182
  O         0.0023976298       -0.0013826906       18.5836807474
  O        -1.6857808576        2.9226286806       18.5836802899
  O        -3.3658692630        5.8430171266       18.5950006083
  O         3.3715658915       -0.0065815949       18.5950003430
  O         1.6782365186        2.9155082836       18.5993371896
  O        -0.0057021256        5.8430178866       18.5950001967
  O         6.7407422117       -0.0013830438       18.5836793825
  O         5.0648959405        2.9155087855       18.5993348525
  O         3.3715673619        5.8484404233       18.5993367998
  O         1.6862082761        0.9740366421        1.1456771178
  O         0.0008589362        3.8931419278        1.1456755541
  O        -1.6857825586        6.8130138205        1.1455516926
  O         5.0569280934        0.9740365790        1.1456767201
  O         3.3715680215        3.8931508208        1.1461860177
  O         1.6862208959        6.8122755580        1.1456780704
  O         8.4289209350        0.9732883115        1.1448371913
  O         6.7422777752        3.8931416457        1.1456757595
  O         5.0569165229        6.8122736472        1.1456771662
  O         0.0039535470        1.9488619914        9.8757775338
  O        -1.6857927871        4.8722090870        9.8666730766
  O        -3.3665681819        7.7834197687        9.8666785584
  O         3.3715828200        2.0550945676        9.9501457030
  O         1.7797432242        4.8121906792        9.9501613702
  O        -0.0050041052        7.7834267596        9.8666719223
  O         6.7391980478        1.9488499763        9.8757722213
  O         4.9633819480        4.8121677856        9.9501456589
  O         3.3715632864        7.7817363140        9.8757755173
  O         0.0001363353       -0.0000765425       22.5794441360
  O        -1.6857815293        2.9200191140       22.5794444435
  O        -3.3718327050        5.8395757971       22.5816908218
  O         3.3715675258        0.0003052128       22.5816890586
  O         1.6859348334        2.9199526184       22.5817214577
  O         0.0002659809        5.8395744177       22.5816899121
  O         6.7429993536       -0.0000782466       22.5794435525
  O         5.0572015900        2.9199526299       22.5817202762
  O         3.3715676956        5.8395505886       22.5817207259
  O         1.6867419638        0.9690308793        5.1353363178
  O        -0.0032094202        3.8961149026        5.1353349464
  O        -1.6857844498        6.8130140197        5.1534344072
  O         5.0563901108        0.9690293422        5.1353355959
  O         3.3715670501        3.8931496483        5.1427778510
  O         1.6816118796        6.8143161287        5.1353354989
  O         8.4289197066        0.9732864623        5.1368225549
  O         6.7463412298        3.8961135122        5.1353344136
  O         5.0615178551        6.8143126593        5.1353367992
  O         0.0062777289        1.9502025378       13.8334305457
  O        -1.6857946850        4.8696170226       13.8621962306
  O        -3.3688191041        7.7847178300       13.8621892268
  O         3.3715814060        2.0544936809       13.7370614928
  O         1.7792258802        4.8124895893       13.7370349839
  O        -0.0027575889        7.7847231859       13.8621961876
  O         6.7368673303        1.9501966651       13.8334344530
  O         4.9638997378        4.8124716992       13.7370590848
  O         3.3715657346        7.7790528020       13.8334280418
     188
 i =        6, E =     -6889.1475258304
 Zn        -0.0003806649        0.0002187807        5.6896652005
 Zn        -1.6857853651        2.9194256910        5.6896597185
 Zn        -3.3743453858        5.8381254347        5.6952014393
 Zn         3.3715656937        0.0032046525        5.6952008835
 Zn         1.6811150531        2.9171712713        5.6730597622
 Zn         0.0027745471        5.8381254249        5.6952004400
 Zn         6.7435146215        0.0002208135        5.6896609969
 Zn         5.0620182977        2.9171695114        5.6730570991
 Zn         3.3715648657        5.8451159506        5.6730589881
 Zn         1.6779755195        0.9742900516       14.4249997824
 Zn        -0.0030465625        3.8858890089       14.4250059231
 Zn        -1.6857858768        6.8130163437       14.4424631602
 Zn         5.0651670474        0.9742903217       14.4250083847
 Zn         3.3715666764        3.8931527780       14.5220492034
 Zn         1.6905507515        6.8192847696       14.4250051210
 Zn         8.4289237343        0.9732861915       14.4214999466
 Zn         6.7461756773        3.8858835469       14.4250093553
 Zn         5.0525803324        6.8192773521       14.4250003903
 Zn        -0.0011288940        1.9459233056       23.1490807959
 Zn        -1.6857830149        4.8656702563       23.1493942941
 Zn        -3.3722338131        7.7866881668       23.1493953441
 Zn         3.3715687767        1.9461615618       23.1503885177
 Zn         1.6854250317        4.8666470273       23.1503900922
 Zn         0.0006660860        7.7866874568       23.1493949618
 Zn         6.7442669917        1.9459232287       23.1490798908
 Zn         5.0577118003        4.8666466433       23.1503895221
 Zn         3.3715680519        7.7876083646       23.1490798766
 In        -0.0002146712        0.0001236604        0.0512796641
 In        -1.6857836881        2.9196153578        0.0512780187
 In        -3.3710684818        5.8400148900        0.0515181279
 In         3.3715679998       -0.0005769637        0.0515164047
 In         1.6857540893        2.9198456167        0.0502202766
 In        -0.0004987826        5.8400146137        0.0515184443
 In         6.7433509367        0.0001242214        0.0512778197
 In         5.0573825664        2.9198462485        0.0502205820
 In         3.3715682889        5.8397632372        0.0502206015
 In         1.6763983248        0.9742395219        8.7749554738
 In        -0.0038720658        3.8845496857        8.7749481556
 In        -1.6857857031        6.8130154521        8.7660986634
 In         5.0667388065        0.9742392385        8.7749436438
 In         3.3715700876        3.8931498071        8.6820510234
 In         1.6912965338        6.8206684888        8.7749486712
 In         8.4289225971        0.9732866879        8.7614153748
 In         6.7470058251        3.8845463905        8.7749438339
 In         5.0518348868        6.8206675792        8.7749561538
 In         0.0007641071        1.9470157141       17.5033500078
 In        -1.6857845351        4.8659390088       17.5015206727
 In        -3.3720006604        7.7865521176       17.5015193574
 In         3.3715657449        1.9393263542       17.5438453461
 In         1.6795043664        4.8700650327       17.5438504749
 In         0.0004329245        7.7865539424       17.5015210415
 In         6.7423727670        1.9470171596       17.5033527732
 In         5.0636284413        4.8700654654       17.5438467231
 In         3.3715689497        7.7854227413       17.5033498736
 Ga         0.0000134872       -0.0000075447       20.5789125510
 Ga        -1.6857844932        2.9198793896       20.5789118477
 Ga        -3.3704448972        5.8403763443       20.5837369296
 Ga         3.3715681739       -0.0012978948       20.5837368678
 Ga         1.6842264282        2.9189657755       20.5860489382
 Ga        -0.0011256930        5.8403785257       20.5837376625
 Ga         6.7431216250       -0.0000076121       20.5789120081
 Ga         5.0589102730        2.9189647753       20.5860477031
 Ga         3.3715668707        5.8415254664       20.5860482103
 Ga         1.6858679610        0.9718278349        3.1227792178
 Ga        -0.0012242472        3.8939554891        3.1227786516
 Ga        -1.6857855846        6.8130163172        3.1252832549
 Ga         5.0572678306        0.9718277964        3.1227784014
 Ga         3.3715664998        3.8931523684        3.1220319307
 Ga         1.6844749595        6.8136736931        3.1227783544
 Ga         8.4289190703        0.9732879551        3.1237109051
 Ga         6.7443574530        3.8939539838        3.1227790377
 Ga         5.0586577215        6.8136718218        3.1227799137
 Ga        -0.0052179778        1.9435655528       11.8471766929
 Ga        -1.6857860325        4.8749568213       11.8523080802
 Ga        -3.3641888615        7.7820416116       11.8523089313
 Ga         3.3715774812        1.8058494578       11.8367170071
 Ga         1.5639198548        4.9367987061       11.8367111110
 Ga        -0.0073766355        7.7820456263       11.8523077406
 Ga         6.7483607930        1.9435591990       11.8471754152
 Ga         5.1792254468        4.9367913624       11.8367161036
 Ga         3.3715662038        7.7923269912       11.8471760864
  O        -0.0001466264        0.0000843207        3.1539328856
  O        -1.6857841260        2.9196938855        3.1539329931
  O        -3.3696470816        5.8408355365        3.1554207913
  O         3.3715686506       -0.0022177000        3.1554205726
  O         1.6861577030        2.9200795798        3.1578755638
  O        -0.0019217562        5.8408362828        3.1554197810
  O         6.7432831585        0.0000850510        3.1539330634
  O         5.0569776481        2.9200791663        3.1578764454
  O         3.3715671564        5.8392957993        3.1578758695
  O         1.6695575315        0.9415534415       11.8754211479
  O        -0.0355992969        3.8949713992       11.8754200945
  O        -1.6857827433        6.8130150477       11.8768657552
  O         5.0735913744        0.9415542262       11.8754205894
  O         1.6664089761        6.8429357518       11.8754198431
  O         8.4289249332        0.9732850877       11.8754000055
  O         6.7787374940        3.8949552033       11.8754209975
  O         5.0767216276        6.8429337749       11.8754211920
  O        -0.0019753533        1.9454349943       20.5945954944
  O        -1.6857836613        4.8656462590       20.5959447754
  O        -3.3722542056        7.7866993727       20.5959451121
  O         3.3715688528        1.9462657010       20.5918819771
  O         1.6855144081        4.8665950741       20.5918796777
  O         0.0006872077        7.7867001014       20.5959463296
  O         6.7451125746        1.9454344937       20.5945977015
  O         5.0576207420        4.8665941050       20.5918798593
  O         3.3715680880        7.7885844229       20.5945971916
  O        -0.0015319589        0.0008834610        7.7011877460
  O        -1.6857829767        2.9180928714        7.7011823830
  O        -3.3976880559        5.8246581049        7.7241818160
  O         3.3715582814        0.0301545637        7.7241802369
  O         1.6801034012        2.9165898566        7.6973900826
  O         0.0261156930        5.8246491741        7.7241787251
  O         6.7446690041        0.0008840939        7.7011821283
  O         5.0630348457        2.9165824340        7.6973834614
  O         3.3715618415        5.8462832318        7.6973895640
  O         1.6986169480        0.9825666385       16.4099737213
  O         0.0144603870        3.8996245105       16.4099742914
  O        -1.6857831728        6.8130149461       16.4268857645
  O         5.0445163234        0.9825726645       16.4099768637
  O         3.3715646235        3.8931542214       16.4622822590
  O         1.6874070689        6.7972571806       16.4099735827
  O         8.4289201882        0.9732887764       16.4122383334
  O         6.7286761565        3.8996249820       16.4099774627
  O         5.0557327776        6.7972601290       16.4099745320
  O         0.0000854941        1.9466246315       25.1475138368
  O        -1.6857835909        4.8660448646       25.1479316524
  O        -3.3719096360        7.7864991951       25.1479320866
  O         3.3715688666        1.9464738316       25.1479047689
  O         1.6856959411        4.8664905573       25.1479041186
  O         0.0003415496        7.7864991369       25.1479325050
  O         6.7430519221        1.9466250391       25.1475145397
  O         5.0574412342        4.8664905008       25.1479032997
  O         3.3715685911        7.7862056297       25.1475149462
  O         0.0022219484       -0.0012824967       18.5838116113
  O        -1.6857825346        2.9224274442       18.5838114318
  O        -3.3668084568        5.8424749940       18.5943785731
  O         3.3715673375       -0.0054965265       18.5943785012
  O         1.6793074342        2.9161261537       18.5985588464
  O        -0.0047625532        5.8424768185       18.5943789236
  O         6.7409161320       -0.0012820395       18.5838110854
  O         5.0638271170        2.9161253691       18.5985574649
  O         3.3715667564        5.8472054626       18.5985588180
  O         1.6861606247        0.9739060671        1.1457768268
  O         0.0007233424        3.8931672905        1.1457759359
  O        -1.6857837898        6.8130146842        1.1453007639
  O         5.0569755930        0.9739065143        1.1457764371
  O         3.3715678598        3.8931514472        1.1460454886
  O         1.6861315824        6.8123807281        1.1457772443
  O         8.4289202412        0.9732879125        1.1449190027
  O         6.7424126474        3.8931673295        1.1457761609
  O         5.0570047739        6.8123794342        1.1457769826
  O         0.0038609401        1.9488069351        9.8757317553
  O        -1.6857903304        4.8713707489        9.8670574004
  O        -3.3672971329        7.7838384040        9.8670627310
  O         3.3715781919        2.0442261687        9.9430906332
  O         1.7703468110        4.8176162023        9.9430940573
  O        -0.0042751645        7.7838430984        9.8670571266
  O         6.7392847638        1.9487998085        9.8757272282
  O         4.9727892214        4.8176058652        9.9430900076
  O         3.3715654272        7.7818437347        9.8757314959
  O         0.0001454145       -0.0000830185       22.5795863752
  O        -1.6857828371        2.9200302491       22.5795865036
  O        -3.3718533919        5.8395627870       22.5815537937
  O         3.3715682512        0.0003292677       22.5815531017
  O         1.6859414773        2.9199554218       22.5817376848
  O         0.0002862184        5.8395625239       22.5815536284
  O         6.7429908651       -0.0000836634       22.5795863143
  O         5.0571953366        2.9199552571       22.5817369042
  O         3.3715680190        5.8395442414       22.5817374451
  O         1.6868094682        0.9702221571        5.1360434992
  O        -0.0021435445        3.8955751033        5.1360421422
  O        -1.6857841771        6.8130145452        5.1510767744
  O         5.0563251258        0.9702204948        5.1360427230
  O         3.3715678170        3.8931503733        5.1415596735
  O         1.6826125650        6.8136609530        5.1360425469
  O         8.4289202807        0.9732869159        5.1368500675
  O         6.7452781022        3.8955746820        5.1360422280
  O         5.0605197943        6.8136594752        5.1360436825
  O         0.0061323892        1.9501183776       13.8359050046
  O        -1.6857924565        4.8694952931       13.8628180186
  O        -3.3689234171        7.7847770825       13.8628138356
  O         3.3715771765        2.0413599751       13.7501041727
  O         1.7678631531        4.8190505019       13.7500916280
  O        -0.0026506101        7.7847824214       13.8628176716
  O         6.7370115140        1.9501124102       13.8359087046
  O         4.9752707820        4.8190409831       13.7501033193
  O         3.3715659898        7.7792209660       13.8359041551
     188
 i =        7, E =     -6889.1476800884
 Zn        -0.0005206920        0.0003004326        5.6886390274
 Zn        -1.6857840548        2.9192623670        5.6886364904
 Zn        -3.3738339872        5.8384205645        5.6941462275
 Zn         3.3715667220        0.0026153427        5.6941463433
 Zn         1.6826027150        2.9180281202        5.6766361521
 Zn         0.0022646152        5.8384198701        5.6941457327
 Zn         6.7436568026        0.0003008190        5.6886370469
 Zn         5.0605326352        2.9180272856        5.6766334379
 Zn         3.3715667735        5.8433999731        5.6766363685
 Zn         1.6791846538        0.9742326564       14.4258300326
 Zn        -0.0024859804        3.8869650224       14.4258331895
 Zn        -1.6857847425        6.8130157058       14.4422797696
 Zn         5.0639548911        0.9742315444       14.4258343942
 Zn         3.3715670773        3.8931520086       14.5156182962
 Zn         1.6898988450        6.8182615447       14.4258331882
 Zn         8.4289221030        0.9732869249       14.4217651194
 Zn         6.7456203438        3.8869619945       14.4258345008
 Zn         5.0532343136        6.8182580688       14.4258299386
 Zn        -0.0011324986        1.9459215827       23.1489035152
 Zn        -1.6857835848        4.8656895580       23.1490736563
 Zn        -3.3722167182        7.7866773696       23.1490734767
 Zn         3.3715689087        1.9461350882       23.1501710712
 Zn         1.6854027332        4.8666598270       23.1501724200
 Zn         0.0006495726        7.7866776067       23.1490734772
 Zn         6.7442699330        1.9459215438       23.1489028517
 Zn         5.0577344898        4.8666595144       23.1501720912
 Zn         3.3715685330        7.7876111858       23.1489027474
 In        -0.0001090135        0.0000629356        0.0518329628
 In        -1.6857838756        2.9197372366        0.0518318340
 In        -3.3712200089        5.8399278589        0.0519708231
 In         3.3715681215       -0.0004019324        0.0519705951
 In         1.6856662350        2.9197950970        0.0510506847
 In        -0.0003478659        5.8399279649        0.0519712209
 In         6.7432454345        0.0000631536        0.0518319209
 In         5.0574702611        2.9197953735        0.0510505953
 In         3.3715682584        5.8398637885        0.0510508339
 In         1.6770799582        0.9740696190        8.7730609712
 In        -0.0036770631        3.8852244267        8.7730562995
 In        -1.6857863101        6.8130158549        8.7660877761
 In         5.0660561779        0.9740671140        8.7730535267
 In         3.3715679711        3.8931514694        8.6867591106
 In         1.6908103618        6.8201626017        8.7730563037
 In         8.4289205185        0.9732877325        8.7630036391
 In         6.7468131509        3.8852232787        8.7730538005
 In         5.0523227102        6.8201617276        8.7730613251
 In         0.0006746984        1.9469646618       17.5046265318
 In        -1.6857845953        4.8663466554       17.5035026538
 In        -3.3716474322        7.7863485381       17.5035028449
 In         3.3715663660        1.9407274080       17.5399537948
 In         1.6807176757        4.8693647921       17.5399557548
 In         0.0000800958        7.7863499575       17.5035021894
 In         6.7424611537        1.9469655804       17.5046284448
 In         5.0624158387        4.8693648304       17.5399543522
 In         3.3715683082        7.7855247278       17.5046263186
 Ga         0.0000257182       -0.0000148959       20.5785740950
 Ga        -1.6857837872        2.9198933496       20.5785735439
 Ga        -3.3706579794        5.8402524184       20.5825865370
 Ga         3.3715682519       -0.0010508848       20.5825865376
 Ga         1.6845390439        2.9191459715       20.5850798315
 Ga        -0.0009115564        5.8402532021       20.5825868108
 Ga         6.7431104813       -0.0000149002       20.5785741457
 Ga         5.0585971655        2.9191447008       20.5850793457
 Ga         3.3715670894        5.8411639572       20.5850796018
 Ga         1.6859246588        0.9722605431        3.1229562753
 Ga        -0.0008204579        3.8937870823        3.1229559270
 Ga        -1.6857842694        6.8130149501        3.1248567454
 Ga         5.0572119974        0.9722603909        3.1229559683
 Ga         3.3715678588        3.8931514719        3.1222297858
 Ga         1.6848232959        6.8134077281        3.1229557739
 Ga         8.4289205689        0.9732875517        3.1233688256
 Ga         6.7439559064        3.8937867222        3.1229560170
 Ga         5.0583119511        6.8134069367        3.1229563194
 Ga        -0.0044000799        1.9440480977       11.8465283214
 Ga        -1.6857896063        4.8741209859       11.8514506872
 Ga        -3.3648998022        7.7824528094       11.8514505793
 Ga         3.3715405470        1.8188403633       11.8384334171
 Ga         1.5752235970        4.9302715179       11.8384345390
 Ga        -0.0066555040        7.7824663354       11.8514504766
 Ga         6.7475372678        1.9440349771       11.8465281385
 Ga         5.1679560099        4.9303284280       11.8384338437
 Ga         3.3715574247        7.7913773555       11.8465282560
  O        -0.0000521222        0.0000300227        3.1553320541
  O        -1.6857837395        2.9198016945        3.1553333293
  O        -3.3697772765        5.8407605460        3.1564360569
  O         3.3715687833       -0.0020678225        3.1564359456
  O         1.6861313267        2.9200639263        3.1582359732
  O        -0.0017901899        5.8407606212        3.1564352519
  O         6.7431900511        0.0000307239        3.1553318020
  O         5.0570058661        2.9200636711        3.1582361676
  O         3.3715683299        5.8393262105        3.1582365381
  O         1.6720436433        0.9436794431       11.8756611020
  O        -0.0324844035        3.8960796831       11.8756583711
  O        -1.6857772107        6.8130109364       11.8759449042
  O         5.0710721023        0.9437008197       11.8756591088
  O         1.6670062371        6.8396832036       11.8756586871
  O         8.4289251457        0.9732850863       11.8753021540
  O         6.7756180569        3.8960640268       11.8756595878
  O         5.0761239116        6.8397179355       11.8756607315
  O        -0.0017924348        1.9455403481       20.5947684884
  O        -1.6857837912        4.8656706939       20.5961795650
  O        -3.3722325659        7.7866865368       20.5961794781
  O         3.3715682919        1.9463282898       20.5930772856
  O         1.6855691461        4.8665633589       20.5930762121
  O         0.0006659647        7.7866868426       20.5961790215
  O         6.7449302519        1.9455401196       20.5947681379
  O         5.0575667126        4.8665628313       20.5930765797
  O         3.3715684630        7.7883727861       20.5947690624
  O        -0.0016951829        0.0009785606        7.6997887737
  O        -1.6857827079        2.9179062983        7.6997854490
  O        -3.3956254110        5.8258465943        7.7209183462
  O         3.3715608203        0.0277741710        7.7209177858
  O         1.6813713025        2.9173182267        7.6992748305
  O         0.0240533647        5.8258396274        7.7209172143
  O         6.7448314311        0.0009769159        7.6997857327
  O         5.0617668594        2.9173146141        7.6992711133
  O         3.3715658175        5.8448211210        7.6992750019
  O         1.6975565014        0.9819778746       16.4109089182
  O         0.0134186519        3.8990007110       16.4109090432
  O        -1.6857831688        6.8130142515       16.4274224436
  O         5.0455768483        0.9819845693       16.4109106148
  O         3.3715663577        3.8931522625       16.4573861029
  O         1.6874279032        6.7984701452       16.4109089277
  O         8.4289202246        0.9732880153       16.4128811835
  O         6.7297173683        3.8990006347       16.4109106354
  O         5.0557121139        6.7984747430       16.4109087190
  O         0.0001118740        1.9466397162       25.1476884714
  O        -1.6857835351        4.8661471689       25.1479554669
  O        -3.3718207565        7.7864488403       25.1479551929
  O         3.3715684133        1.9466463965       25.1480325502
  O         1.6858458125        4.8664036766       25.1480332749
  O         0.0002530400        7.7864486420       25.1479552714
  O         6.7430248045        1.9466399812       25.1476881347
  O         5.0572906846        4.8664036435       25.1480329371
  O         3.3715683514        7.7861740741       25.1476882340
  O         0.0019880516       -0.0011480185       18.5845167990
  O        -1.6857840584        2.9221592094       18.5845163836
  O        -3.3681903027        5.8416765826       18.5941144751
  O         3.3715687728       -0.0038994442       18.5941143422
  O         1.6806782719        2.9169171755       18.5978151513
  O        -0.0033797695        5.8416786734       18.5941143307
  O         6.7411485393       -0.0011474595       18.5845167414
  O         5.0624572632        2.9169156457       18.5978152383
  O         3.3715665232        5.8456231972       18.5978152917
  O         1.6861094684        0.9737982404        1.1457528103
  O         0.0006044294        3.8931779345        1.1457525262
  O        -1.6857843017        6.8130152082        1.1453075798
  O         5.0570265956        0.9737982943        1.1457527557
  O         3.3715681253        3.8931517345        1.1457346241
  O         1.6860631803        6.8124783725        1.1457528374
  O         8.4289201673        0.9732878887        1.1450083370
  O         6.7425315659        3.8931779533        1.1457525059
  O         5.0570728811        6.8124780131        1.1457526779
  O         0.0041470955        1.9489722798        9.8752055585
  O        -1.6857866394        4.8697441870        9.8665642911
  O        -3.3687075359        7.7846511969        9.8665671010
  O         3.3715737123        2.0445024378        9.9403125358
  O         1.7705879003        4.8174777464        9.9403161231
  O        -0.0028638149        7.7846527693        9.8665641420
  O         6.7389923017        1.9489679808        9.8752028463
  O         4.9725471665        4.8174706888        9.9403129178
  O         3.3715660869        7.7815131065        9.8752056372
  O         0.0000892239       -0.0000510962       22.5795111063
  O        -1.6857835030        2.9199659018       22.5795109169
  O        -3.3718642442        5.8395557953       22.5809334762
  O         3.3715683273        0.0003420761       22.5809335198
  O         1.6858943422        2.9199274602       22.5812328591
  O         0.0002966377        5.8395559595       22.5809334241
  O         6.7430475798       -0.0000513030       22.5795115050
  O         5.0572427984        2.9199272954       22.5812323482
  O         3.3715683058        5.8395995486       22.5812327822
  O         1.6868075916        0.9714355930        5.1365970603
  O        -0.0010931111        3.8949651795        5.1365962315
  O        -1.6857842130        6.8130151062        5.1490147424
  O         5.0563280194        0.9714343020        5.1365968091
  O         3.3715676336        3.8931515744        5.1409711677
  O         1.6836665640        6.8130550452        5.1365963312
  O         8.4289204651        0.9732875009        5.1358889136
  O         6.7442291277        3.8949652500        5.1365966845
  O         5.0594676791        6.8130546275        5.1365970478
  O         0.0065281218        1.9503465378       13.8365163598
  O        -1.6857874106        4.8693586275       13.8627786595
  O        -3.3690409812        7.7848441682       13.8627764677
  O         3.3715737022        2.0364032990       13.7565919100
  O         1.7635747211        4.8215269034       13.7565904589
  O        -0.0025296896        7.7848463537       13.8627782892
  O         6.7366132656        1.9503420681       13.8365195820
  O         4.9795614365        4.8215212750       13.7565923358
  O         3.3715663986        7.7787640082       13.8365160930
     188
 i =        8, E =     -6889.1435078675
 Zn        -0.0016874903        0.0009792839        5.6839380755
 Zn        -1.6857766350        2.9179058963        5.6839494293
 Zn        -3.3710517075        5.8400238097        5.6884023678
 Zn         3.3715749768       -0.0005895562        5.6884056102
 Zn         1.6897919274        2.9221660926        5.6972290282
 Zn        -0.0005067870        5.8400193928        5.6884057582
 Zn         6.7448367156        0.0009696884        5.6839450313
 Zn         5.0533587830        2.9221704010        5.6972330426
 Zn         3.3715797168        5.8351096048        5.6972341148
 Zn         1.6866569150        0.9742224361       14.4282909330
 Zn         0.0012815769        3.8934496958       14.4282676313
 Zn        -1.6857733143        6.8130087664       14.4393360359
 Zn         5.0564518500        0.9742283022       14.4282596159
 Zn         3.3715829342        3.8931398696       14.4775658638
 Zn         1.6861650125        6.8117564396       14.4282702672
 Zn         8.4289143815        0.9732903573       14.4235591210
 Zn         6.7418706322        3.8934572559       14.4282548526
 Zn         5.0569777983        6.8117883630       14.4282886380
 Zn        -0.0007543971        1.9461408222       23.1476299251
 Zn        -1.6857855877        4.8661877700       23.1467885202
 Zn        -3.3717820085        7.7864225380       23.1467821969
 Zn         3.3715688066        1.9460666666       23.1479859935
 Zn         1.6853481554        4.8666898945       23.1479824227
 Zn         0.0002195618        7.7864269015       23.1467850167
 Zn         6.7438888247        1.9461404528       23.1476335978
 Zn         5.0577907786        4.8666904992       23.1479828077
 Zn         3.3715714276        7.7871673536       23.1476333009
 In         0.0005872375       -0.0003379412        0.0543747354
 In        -1.6857847437        2.9205417139        0.0543801831
 In        -3.3720711547        5.8394391285        0.0538789985
 In         3.3715689487        0.0005814537        0.0538867276
 In         1.6853551556        2.9196176363        0.0553740518
 In         0.0004998524        5.8394408067        0.0538791166
 In         6.7425500065       -0.0003402183        0.0543800412
 In         5.0577800010        2.9196151851        0.0553715618
 In         3.3715680212        5.8402169412        0.0553730839
 In         1.6799690194        0.9726677968        8.7625750704
 In        -0.0034362140        3.8884326263        8.7625974223
 In        -1.6857818823        6.8130127269        8.7664570988
 In         5.0631529097        0.9726624782        8.7626044236
 In         3.3715646906        3.8931540705        8.7094408282
 In         1.6881552475        6.8183516840        8.7625968090
 In         8.4289114661        0.9732919853        8.7747239744
 In         6.7465747105        3.8884385438        8.7626047447
 In         5.0549820990        6.8183585585        8.7625740861
 In        -0.0001497819        1.9464914244       17.5124130978
 In        -1.6857852685        4.8684058522       17.5155664149
 In        -3.3698637695        7.7853211397       17.5155744011
 In         3.3715700549        1.9471180560       17.5150548940
 In         1.6862526484        4.8661692442       17.5150393583
 In        -0.0017027202        7.7853197668       17.5155630992
 In         6.7432785719        1.9464900692       17.5124078336
 In         5.0568865852        4.8661690318       17.5150487781
 In         3.3715658875        7.7864695677       17.5124129578
 Ga         0.0000335876       -0.0000209572       20.5776112122
 Ga        -1.6857813724        2.9199026403       20.5776111217
 Ga        -3.3722809676        5.8393121249       20.5764165550
 Ga         3.3715685279        0.0008273964       20.5764173419
 Ga         1.6866364612        2.9203555360       20.5786400249
 Ga         0.0007161292        5.8393062342       20.5764138496
 Ga         6.7431059541       -0.0000205328       20.5776134680
 Ga         5.0564971178        2.9203531737       20.5786429462
 Ga         3.3715685781        5.8387406962       20.5786427216
 Ga         1.6861799790        0.9749089629        3.1248222909
 Ga         0.0016022983        3.8926796076        3.1248236139
 Ga        -1.6857783269        6.8130093513        3.1235682321
 Ga         5.0569589634        0.9749077721        3.1248250492
 Ga         3.3715733868        3.8931476101        3.1249572997
 Ga         1.6869974535        6.8118611070        3.1248252214
 Ga         8.4289262355        0.9732861260        3.1224719684
 Ga         6.7415419424        3.8926847463        3.1248222092
 Ga         5.0561486618        6.8118646744        3.1248189604
 Ga         0.0019538911        1.9477572040       11.8444131970
 Ga        -1.6857731800        4.8687576412       11.8474807379
 Ga        -3.3695016571        7.7851121511       11.8474794221
 Ga         3.3713487327        1.9257022219       11.8478616620
 Ga         1.6681312120        4.8766258676       11.8479001950
 Ga        -0.0020053137        7.7851334022       11.8474817019
 Ga         6.7411141663        1.9477443728       11.8444186309
 Ga         5.0753177561        4.8770680487       11.8478688377
 Ga         3.3715224347        7.7840192141       11.8444159711
  O         0.0006842581       -0.0003933718        3.1608837870
  O        -1.6857830086        2.9206463000        3.1608847687
  O        -3.3711236398        5.8399854398        3.1602599229
  O         3.3715684023       -0.0005153984        3.1602597633
  O         1.6860587224        2.9200212474        3.1575820168
  O        -0.0004383307        5.8399828082        3.1602616135
  O         6.7424581213       -0.0003930767        3.1608816724
  O         5.0570846155        2.9200217330        3.1575798564
  O         3.3715726588        5.8394086008        3.1575811852
  O         1.6927702786        0.9620337952       11.8756238047
  O        -0.0060380696        3.9049314015       11.8756239091
  O        -1.6857652716        6.8130005801       11.8688496423
  O         5.0501652515        0.9621314979       11.8756212156
  O         1.6725614871        6.8123487626       11.8756268308
  O         8.4288977677        0.9733010339       11.8728780235
  O         6.7492009391        3.9049557895       11.8756222283
  O         5.0705923338        6.8125913170       11.8756227104
  O        -0.0002985953        1.9464028598       20.5957211270
  O        -1.6857851697        4.8659948066       20.5966673463
  O        -3.3719502128        7.7865222361       20.5966657586
  O         3.3715650797        1.9469169860       20.6003857151
  O         1.6860821228        4.8662676251       20.6003942521
  O         0.0003848248        7.7865207254       20.5966598234
  O         6.7434387048        1.9464026869       20.5957093484
  O         5.0570572276        4.8662695903       20.6003951639
  O         3.3715692232        7.7866458740       20.5957140772
  O        -0.0024136333        0.0013970208        7.6931184553
  O        -1.6857825991        2.9170878168        7.6931262835
  O        -3.3833317991        5.8329316992        7.7006247796
  O         3.3715741130        0.0135851872        7.7006304695
  O         1.6856120850        2.9197509792        7.7057094888
  O         0.0117675786        5.8329324879        7.7006342706
  O         6.7455435578        0.0013848979        7.6931289626
  O         5.0575196462        2.9197669939        7.7057279760
  O         3.3715836738        5.8399323562        7.7057130451
  O         1.6905790123        0.9776461347       16.4161715698
  O         0.0061696574        3.8951245438       16.4161655393
  O        -1.6857832452        6.8130126110       16.4309340534
  O         5.0525527339        0.9776544282       16.4161584471
  O         3.3715779934        3.8931423114       16.4277371804
  O         1.6871664553        6.8066785762       16.4161678152
  O         8.4289199457        0.9732847125       16.4180316310
  O         6.7369622139        3.8951245792       16.4161559409
  O         5.0559749654        6.8066921481       16.4161675577
  O         0.0000799539        1.9466219061       25.1489629148
  O        -1.6857843434        4.8667864764       25.1481572206
  O        -3.3712659703        7.7861328372       25.1481543502
  O         3.3715658051        1.9472074279       25.1486551026
  O         1.6863325861        4.8661208797       25.1486602724
  O        -0.0002999122        7.7861325646       25.1481526402
  O         6.7430531073        1.9466205162       25.1489592548
  O         5.0568008589        4.8661205697       25.1486627102
  O         3.3715671375        7.7862051344       25.1489574626
  O         0.0008149330       -0.0004722645       18.5913977174
  O        -1.6857913825        2.9208114679       18.5913938547
  O        -3.3754153104        5.8375044394       18.5944404535
  O         3.3715739493        0.0044473498       18.5944411745
  O         1.6890867691        2.9217683998       18.5931783225
  O         0.0038507710        5.8375049492       18.5944386633
  O         6.7423159026       -0.0004721327       18.5913978541
  O         5.0540536413        2.9217673866       18.5931851965
  O         3.3715679937        5.8359143654       18.5931780350
  O         1.6857232483        0.9730060350        1.1462670101
  O        -0.0002728278        3.8932442882        1.1462713795
  O        -1.6857865136        6.8130178456        1.1462817948
  O         5.0574127488        0.9730049886        1.1462687534
  O         3.3715696019        3.8931518714        1.1447735968
  O         1.6855683827        6.8132046160        1.1462653040
  O         8.4289198178        0.9732873153        1.1466934514
  O         6.7434090768        3.8932446051        1.1462700022
  O         5.0575669907        6.8132097423        1.1462660934
  O         0.0054866108        1.9497500418        9.8727226122
  O        -1.6857764512        4.8607333185        9.8644843378
  O        -3.3765031073        7.7891455465        9.8644741011
  O         3.3715264418        2.0464059824        9.9202440699
  O         1.7722749309        4.8165057947        9.9202269559
  O         0.0049481889        7.7891465524        9.8644854299
  O         6.7376249287        1.9497552847        9.8727323655
  O         4.9708692959        4.8165554531        9.9202497483
  O         3.3715662169        7.7799631549        9.8727243061
  O        -0.0002132324        0.0001198041       22.5795885858
  O        -1.6857873520        2.9196194113       22.5795874162
  O        -3.3717452377        5.8396204451       22.5776920212
  O         3.3715696574        0.0002067076       22.5776944826
  O         1.6854876738        2.9196877735       22.5782743961
  O         0.0001764148        5.8396227386       22.5776907079
  O         6.7433530134        0.0001220691       22.5795912532
  O         5.0576512708        2.9196865713       22.5782746679
  O         3.3715694449        5.8400748841       22.5782760653
  O         1.6863858485        0.9778434674        5.1393659430
  O         0.0042496664        3.8913865514        5.1393678903
  O        -1.6857835323        6.8130170239        5.1362822839
  O         5.0567555758        0.9778474354        5.1393676388
  O         3.3715690470        3.8931568045        5.1387442616
  O         1.6894406282        6.8102110201        5.1393669274
  O         8.4289218658        0.9732907142        5.1297827527
  O         6.7388937256        3.8913889381        5.1393704013
  O         5.0537065281        6.8102179130        5.1393650530
  O         0.0077819191        1.9510711430       13.8415914055
  O        -1.6857652373        4.8683905711       13.8618310821
  O        -3.3698648558        7.7853156172       13.8618451694
  O         3.3715346718        2.0071416347       13.7996094636
  O         1.7382759704        4.8361341318       13.7996857737
  O        -0.0016802198        7.7853114269       13.8618312390
  O         6.7353461810        1.9510722581       13.8415872118
  O         5.0048825831        4.8361811799       13.7996165362
  O         3.3715665252        7.7773154733       13.8415941105
     188
 i =        9, E =     -6889.1477309955
 Zn        -0.0007563298        0.0004372578        5.6881829229
 Zn        -1.6857830538        2.9189892034        5.6881823043
 Zn        -3.3735171391        5.8386028029        5.6935248911
 Zn         3.3715681137        0.0022505718        5.6935252778
 Zn         1.6833631111        2.9184653918        5.6790773388
 Zn         0.0019496000        5.8386015784        5.6935249572
 Zn         6.7438941625        0.0004362354        5.6881821998
 Zn         5.0597746576        2.9184652336        5.6790771840
 Zn         3.3715686901        5.8425234009        5.6790778450
 Zn         1.6798877998        0.9740905378       14.4258655432
 Zn        -0.0022486901        3.8876486480       14.4258607765
 Zn        -1.6857818197        6.8130139022       14.4420234870
 Zn         5.0632430376        0.9740935755       14.4258606340
 Zn         3.3715728223        3.8931481569       14.5102723054
 Zn         1.6894252308        6.8177140683       14.4258608120
 Zn         8.4289205019        0.9732877253       14.4218522267
 Zn         6.7453837344        3.8876468797       14.4258600635
 Zn         5.0537087522        6.8177198145       14.4258653596
 Zn        -0.0010520112        1.9459680093       23.1487802840
 Zn        -1.6857836391        4.8658055042       23.1487528719
 Zn        -3.3721157665        7.7866188340       23.1487521665
 Zn         3.3715687705        1.9461159282       23.1498161467
 Zn         1.6853868580        4.8666686707       23.1498163490
 Zn         0.0005494006        7.7866193455       23.1487525704
 Zn         6.7441892203        1.9459678514       23.1487806404
 Zn         5.0577504667        4.8666684971       23.1498160364
 Zn         3.3715688926        7.7875174185       23.1487805348
 In         0.0000041605       -0.0000023293        0.0519583066
 In        -1.6857839579        2.9198681111        0.0519584494
 In        -3.3713241744        5.8398680722        0.0519787179
 In         3.3715682514       -0.0002815807        0.0519793060
 In         1.6856604399        2.9197921789        0.0514565930
 In        -0.0002441178        5.8398682566        0.0519790099
 In         6.7431323959       -0.0000024304        0.0519582622
 In         5.0574758987        2.9197919931        0.0514561614
 In         3.3715682455        5.8398695567        0.0514565153
 In         1.6771838751        0.9738432916        8.7719275024
 In        -0.0038180746        3.8854299318        8.7719310123
 In        -1.6857842274        6.8130145026        8.7663320637
 In         5.0659482505        0.9738413588        8.7719291658
 In         3.3715686320        3.8931508857        8.6904095499
 In         1.6905621673        6.8201824062        8.7719311329
 In         8.4289192828        0.9732882995        8.7647749064
 In         6.7469541601        3.8854293775        8.7719291964
 In         5.0525710976        6.8201847919        8.7719278570
 In         0.0005410628        1.9468880523       17.5053556460
 In        -1.6857845726        4.8665431130       17.5049971901
 In        -3.3714771573        7.7862505477       17.5049990866
 In         3.3715669131        1.9413527498       17.5362570450
 In         1.6812594586        4.8690518051       17.5362559333
 In        -0.0000900015        7.7862515357       17.5049966906
 In         6.7425935326        1.9468886868       17.5053560058
 In         5.0618750717        4.8690520310       17.5362565539
 In         3.3715679632        7.7856779798       17.5053554544
 Ga         0.0000050682       -0.0000030297       20.5786610952
 Ga        -1.6857837469        2.9198696827       20.5786605191
 Ga        -3.3709208244        5.8401005263       20.5820079700
 Ga         3.3715681141       -0.0007470043       20.5820081285
 Ga         1.6848511599        2.9193259624       20.5843356577
 Ga        -0.0006482484        5.8401006868       20.5820078926
 Ga         6.7431311536       -0.0000031203       20.5786612364
 Ga         5.0582847646        2.9193247847       20.5843354735
 Ga         3.3715672821        5.8408036660       20.5843357615
 Ga         1.6859369348        0.9726464490        3.1234256491
 Ga        -0.0004799811        3.8936045873        3.1234255990
 Ga        -1.6857838823        6.8130147106        3.1248270911
 Ga         5.0571995552        0.9726463478        3.1234257596
 Ga         3.3715681227        3.8931512967        3.1229094852
 Ga         1.6851519378        6.8132039192        3.1234257403
 Ga         8.4289207476        0.9732876783        3.1235154883
 Ga         6.7436159233        3.8936045839        3.1234255719
 Ga         5.0579842131        6.8132035618        3.1234253239
 Ga        -0.0036564663        1.9444784569       11.8464056086
 Ga        -1.6857777798        4.8735969367       11.8511054760
 Ga        -3.3653566056        7.7827162968       11.8511057042
 Ga         3.3715231810        1.8339904587       11.8397271907
 Ga         1.5884136538        4.9226557903       11.8397320985
 Ga        -0.0061956440        7.7827182224       11.8511054996
 Ga         6.7467793857        1.9444725314       11.8464057613
 Ga         5.1548277933        4.9227686212       11.8397283122
 Ga         3.3715564899        7.7905180284       11.8464059405
  O         0.0001017579       -0.0000586543        3.1556854722
  O        -1.6857838375        2.9199793371        3.1556857214
  O        -3.3700047424        5.8406294274        3.1566442994
  O         3.3715686714       -0.0018051744        3.1566441171
  O         1.6861386859        2.9200681859        3.1575692871
  O        -0.0015625104        5.8406295276        3.1566440460
  O         6.7430360426       -0.0000581119        3.1556851146
  O         5.0569985365        2.9200681379        3.1575693249
  O         3.3715686149        5.8393175521        3.1575692037
  O         1.6748612756        0.9460065640       11.8753966160
  O        -0.0290337252        3.8973584525       11.8753971771
  O        -1.6857807529        6.8130128321       11.8746947640
  O         5.0682383042        0.9460258349       11.8753965016
  O         1.6676239672        6.8360548755       11.8753976991
  O         8.4289164084        0.9732900986       11.8748038254
  O         6.7721876269        3.8973554660       11.8753971103
  O         5.0755168344        6.8361137503       11.8753963420
  O        -0.0015875392        1.9456589440       20.5946971660
  O        -1.6857839960        4.8656790827       20.5959298611
  O        -3.3722253515        7.7866822690       20.5959297491
  O         3.3715679653        1.9464373157       20.5937380139
  O         1.6856639244        4.8665087585       20.5937381121
  O         0.0006585651        7.7866824827       20.5959291664
  O         6.7447253933        1.9456584650       20.5946958762
  O         5.0574722317        4.8665086281       20.5937384589
  O         3.3715684108        7.7881360250       20.5946965356
  O        -0.0017631540        0.0010180891        7.6991848305
  O        -1.6857828894        2.9178295211        7.6991836520
  O        -3.3942190154        5.8266564782        7.7185213190
  O         3.3715627650        0.0261512653        7.7185215352
  O         1.6815365902        2.9174117747        7.6995633749
  O         0.0226487933        5.8266506821        7.7185214198
  O         6.7448980620        0.0010154797        7.6991840775
  O         5.0615994456        2.9174112193        7.6995653125
  O         3.3715680601        5.8446312727        7.6995638291
  O         1.6966816218        0.9814230345       16.4113348306
  O         0.0125000629        3.8985204276       16.4113323002
  O        -1.6857831911        6.8130144212       16.4281976497
  O         5.0464507595        0.9814300586       16.4113321710
  O         3.3715690608        3.8931506413       16.4528293778
  O         1.6873848817        6.7995047843       16.4113323212
  O         8.4289199852        0.9732878957       16.4134517901
  O         6.7306348590        3.8985210896       16.4113319574
  O         5.0557555652        6.7995104688       16.4113344791
  O         0.0000836017        1.9466236524       25.1479413859
  O        -1.6857837880        4.8662386320       25.1480015240
  O        -3.3717415145        7.7864034023       25.1480012331
  O         3.3715680779        1.9466394195       25.1481100315
  O         1.6858396471        4.8664070999       25.1481107716
  O         0.0001740407        7.7864033178       25.1480011184
  O         6.7430527502        1.9466235645       25.1479410733
  O         5.0572966009        4.8664069478       25.1481107872
  O         3.3715681887        7.7862060838       25.1479409422
  O         0.0018555162       -0.0010714679       18.5856071882
  O        -1.6857849267        2.9220065755       18.5856059746
  O        -3.3690112918        5.8412027536       18.5944847672
  O         3.3715691449       -0.0029515982       18.5944848919
  O         1.6817907076        2.9175589529       18.5971683522
  O        -0.0025579562        5.8412043060       18.5944846172
  O         6.7412805206       -0.0010709630       18.5856067063
  O         5.0613455948        2.9175579513       18.5971691641
  O         3.3715670696        5.8443381863       18.5971682451
  O         1.6860650384        0.9736580364        1.1460524044
  O         0.0004612227        3.8932098743        1.1460528752
  O        -1.6857844130        6.8130154657        1.1456117561
  O         5.0570711886        0.9736581013        1.1460525046
  O         3.3715683532        3.8931514857        1.1458425551
  O         1.6859640937        6.8125863752        1.1460522687
  O         8.4289201393        0.9732876682        1.1455636360
  O         6.7426748556        3.8932100848        1.1460527036
  O         5.0571720444        6.8125866427        1.1460522932
  O         0.0042359384        1.9490245383        9.8750504570
  O        -1.6857865530        4.8687666513        9.8661329370
  O        -3.3695488676        7.7851364052        9.8661330962
  O         3.3715617476        2.0447104784        9.9381511751
  O         1.7707814262        4.8173661556        9.9381431090
  O        -0.0020170161        7.7851409233        9.8661330733
  O         6.7388989208        1.9490219078        9.8750500616
  O         4.9723599399        4.8173763947        9.9381519286
  O         3.3715657630        7.7814098919        9.8750507965
  O         0.0000498566       -0.0000289860       22.5796570824
  O        -1.6857839843        2.9199207326       22.5796568463
  O        -3.3718179498        5.8395820546       22.5806117788
  O         3.3715686479        0.0002888796       22.5806119869
  O         1.6858023836        2.9198736467       22.5809055560
  O         0.0002503533        5.8395824373       22.5806115058
  O         6.7430873138       -0.0000288348       22.5796576731
  O         5.0573350279        2.9198731508       22.5809051068
  O         3.3715683756        5.8397065742       22.5809057301
  O         1.6867126748        0.9721832011        5.1371395518
  O        -0.0004923152        3.8945077545        5.1371390892
  O        -1.6857838733        6.8130151263        5.1474728436
  O         5.0564238155        0.9721832107        5.1371396625
  O         3.3715683262        3.8931518598        5.1410787794
  O         1.6843635146        6.8127627254        5.1371390824
  O         8.4289206694        0.9732878809        5.1351057783
  O         6.7436291376        3.8945080617        5.1371400183
  O         5.0587727729        6.8127634527        5.1371394609
  O         0.0066256217        1.9504032862       13.8370459217
  O        -1.6857853753        4.8693454666       13.8631308066
  O        -3.3690476212        7.7848474514       13.8631326498
  O         3.3715626183        2.0329325891       13.7622803553
  O         1.7605814672        4.8232549852       13.7622965923
  O        -0.0025173890        7.7848511852       13.8631306560
  O         6.7365125952        1.9503999261       13.8370464936
  O         4.9825613358        4.8232655357       13.7622817468
  O         3.3715660889        7.7786512489       13.8370460885
     188
 i =       10, E =     -6889.1477036413
 Zn        -0.0006060229        0.0003499443        5.6887367288
 Zn        -1.6857839178        2.9191641232        5.6887352365
 Zn        -3.3739249992        5.8383677522        5.6939728980
 Zn         3.3715673985        0.0027203641        5.6939730245
 Zn         1.6825821353        2.9180157550        5.6777281897
 Zn         0.0023561310        5.8383668355        5.6939733787
 Zn         6.7437420440        0.0003501267        5.6887362752
 Zn         5.0605541547        2.9180152823        5.6777271688
 Zn         3.3715672968        5.8434239527        5.6777282478
 Zn         1.6789457864        0.9739466544       14.4256378938
 Zn        -0.0028464873        3.8869046301       14.4256334348
 Zn        -1.6857834193        6.8130148225       14.4428947863
 Zn         5.0641871284        0.9739482712       14.4256339868
 Zn         3.3715754259        3.8931469417       14.5122978685
 Zn         1.6897707425        6.8186038129       14.4256332302
 Zn         8.4289203436        0.9732877685       14.4215166991
 Zn         6.7459815196        3.8869027951       14.4256339480
 Zn         5.0533622719        6.8186081395       14.4256380383
 Zn        -0.0010956051        1.9459427286       23.1489576500
 Zn        -1.6857834023        4.8657555874       23.1490002712
 Zn        -3.3721594405        7.7866444490       23.1490004380
 Zn         3.3715688142        1.9461105390       23.1500666502
 Zn         1.6853816340        4.8666718382       23.1500675003
 Zn         0.0005924107        7.7866444471       23.1490003380
 Zn         6.7442332913        1.9459426257       23.1489574691
 Zn         5.0577554950        4.8666715639       23.1500670911
 Zn         3.3715686130        7.7875686471       23.1489574451
 In        -0.0000703764        0.0000405693        0.0517116762
 In        -1.6857838275        2.9197820127        0.0517114122
 In        -3.3712204758        5.8399275886        0.0517692100
 In         3.3715682259       -0.0004015311        0.0517685187
 In         1.6856878821        2.9198076497        0.0510330003
 In        -0.0003476215        5.8399278045        0.0517694575
 In         6.7432069462        0.0000408815        0.0517110841
 In         5.0574487608        2.9198078620        0.0510330293
 In         3.3715683457        5.8398385995        0.0510329926
 In         1.6767751369        0.9738647129        8.7729953144
 In        -0.0040055045        3.8850642888        8.7729983263
 In        -1.6857846728        6.8130142860        8.7660160308
 In         5.0663581421        0.9738621641        8.7729962869
 In         3.3715712493        3.8931492868        8.6885851334
 In         1.6907852327        6.8205276208        8.7729984423
 In         8.4289196072        0.9732887177        8.7632238820
 In         6.7471413072        3.8850639914        8.7729958024
 In         5.0523486332        6.8205282541        8.7729958853
 In         0.0006771302        1.9469663532       17.5043572106
 In        -1.6857846789        4.8663169416       17.5036859244
 In        -3.3716724792        7.7863631197       17.5036888498
 In         3.3715666872        1.9407104755       17.5390189650
 In         1.6807032860        4.8693727615       17.5390189419
 In         0.0001059395        7.7863648238       17.5036857292
 In         6.7424578354        1.9469675440       17.5043575275
 In         5.0624306428        4.8693731195       17.5390190604
 In         3.3715680830        7.7855217915       17.5043572304
 Ga        -0.0000052407        0.0000030417       20.5787969035
 Ga        -1.6857841733        2.9198578630       20.5787957914
 Ga        -3.3707817775        5.8401810821       20.5825792631
 Ga         3.3715681441       -0.0009080319       20.5825793055
 Ga         1.6846288473        2.9191978529       20.5849644505
 Ga        -0.0007876736        5.8401821325       20.5825789688
 Ga         6.7431408129        0.0000028728       20.5787967443
 Ga         5.0585074215        2.9191966416       20.5849641316
 Ga         3.3715671109        5.8410605059       20.5849643424
 Ga         1.6859045902        0.9723243258        3.1232788475
 Ga        -0.0007751414        3.8937384609        3.1232786849
 Ga        -1.6857847453        6.8130154054        3.1252586045
 Ga         5.0572314475        0.9723241765        3.1232789264
 Ga         3.3715674201        3.8931519585        3.1226188423
 Ga         1.6848877313        6.8133931460        3.1232786679
 Ga         8.4289200521        0.9732880582        3.1237234672
 Ga         6.7439099079        3.8937374974        3.1232789601
 Ga         5.0582466513        6.8133919534        3.1232791045
 Ga        -0.0043504938        1.9440589263       11.8465726383
 Ga        -1.6857849078        4.8742220280       11.8515210407
 Ga        -3.3648233194        7.7824084901       11.8515217112
 Ga         3.3715791569        1.8200256734       11.8382040924
 Ga         1.5761120577        4.9297583589       11.8382066742
 Ga        -0.0067398276        7.7824117463       11.8515207560
 Ga         6.7474853371        1.9440643616       11.8465718497
 Ga         5.1669539396        4.9297048821       11.8382041405
 Ga         3.3715723829        7.7913291458       11.8465724417
  O         0.0000449372       -0.0000261980        3.1546725202
  O        -1.6857839457        2.9199148446        3.1546730328
  O        -3.3698235076        5.8407336683        3.1559990301
  O         3.3715686741       -0.0020142746        3.1559985613
  O         1.6861296434        2.9200631870        3.1575124492
  O        -0.0017448138        5.8407343446        3.1559975335
  O         6.7430924355       -0.0000254116        3.1546714600
  O         5.0570065972        2.9200628556        3.1575129468
  O         3.3715677504        5.8393282962        3.1575125188
  O         1.6724607095        0.9432115270       11.8754726879
  O        -0.0327327090        3.8966288325       11.8754744074
  O        -1.6857806196        6.8130132858       11.8759176558
  O         5.0706881533        0.9432081980       11.8754738244
  O         1.6664069764        6.8396230667       11.8754760771
  O         8.4289182362        0.9732891025       11.8751883478
  O         6.7758536855        3.8966412868       11.8754747577
  O         5.0767370016        6.8395918109       11.8754727730
  O        -0.0017901423        1.9455420974       20.5946081746
  O        -1.6857836488        4.8655974295       20.5959119136
  O        -3.3722962668        7.7867233761       20.5959117738
  O         3.3715682647        1.9464129861       20.5933631859
  O         1.6856424869        4.8665210867       20.5933633067
  O         0.0007292326        7.7867236990       20.5959123466
  O         6.7449276579        1.9455414537       20.5946086119
  O         5.0574932222        4.8665206131       20.5933634336
  O         3.3715681715        7.7883701346       20.5946084108
  O        -0.0018184676        0.0010495946        7.6999587001
  O        -1.6857839043        2.9177647201        7.6999571175
  O        -3.3960725642        5.8255866651        7.7205596690
  O         3.3715613718        0.0282915011        7.7205595131
  O         1.6812899190        2.9172720381        7.6995521221
  O         0.0245045460        5.8255795718        7.7205603110
  O         6.7449526248        0.0010483651        7.6999576954
  O         5.0618460645        2.9172682973        7.6995517652
  O         3.3715656325        5.8449148554        7.6995522139
  O         1.6975187727        0.9819484114       16.4105782513
  O         0.0133755264        3.8989828380       16.4105752135
  O        -1.6857828669        6.8130148551       16.4281608737
  O         5.0456126384        0.9819558413       16.4105754762
  O         3.3715687253        3.8931510727       16.4542371028
  O         1.6874216610        6.7985161217       16.4105749797
  O         8.4289196609        0.9732887725       16.4127017252
  O         6.7297596943        3.8989842918       16.4105755395
  O         5.0557191226        6.7985220553       16.4105783888
  O         0.0000835267        1.9466237079       25.1478436794
  O        -1.6857836246        4.8661606420       25.1479876279
  O        -3.3718091845        7.7864416771       25.1479877753
  O         3.3715683939        1.9465818359       25.1480368068
  O         1.6857896578        4.8664361435       25.1480370721
  O         0.0002415474        7.7864419308       25.1479877105
  O         6.7430532206        1.9466239067       25.1478437452
  O         5.0573469127        4.8664360169       25.1480366252
  O         3.3715683286        7.7862067587       25.1478439415
  O         0.0019695383       -0.0011370674       18.5847269762
  O        -1.6857841707        2.9221374557       18.5847253067
  O        -3.3681979611        5.8416717182       18.5944320382
  O         3.3715686401       -0.0038910958       18.5944320615
  O         1.6808998068        2.9170449830       18.5975672262
  O        -0.0033719498        5.8416741035       18.5944314437
  O         6.7411666305       -0.0011366295       18.5847260216
  O         5.0622360132        2.9170439483       18.5975675265
  O         3.3715668448        5.8453667255       18.5975672465
  O         1.6861169639        0.9737238094        1.1460346809
  O         0.0005439712        3.8932211215        1.1460346147
  O        -1.6857839651        6.8130156732        1.1456983064
  O         5.0570193464        0.9737241114        1.1460346650
  O         3.3715682305        3.8931513797        1.1458951633
  O         1.6859955719        6.8125088681        1.1460347574
  O         8.4289202052        0.9732872543        1.1454899757
  O         6.7425922837        3.8932215216        1.1460347439
  O         5.0571407365        6.8125088089        1.1460347547
  O         0.0040873638        1.9489383701        9.8754460573
  O        -1.6857853063        4.8699498435        9.8661464700
  O        -3.3685246313        7.7845460879        9.8661468117
  O         3.3715650778        2.0455658068        9.9414455337
  O         1.7715249241        4.8169366553        9.9414375203
  O        -0.0030412862        7.7845488974        9.8661461005
  O         6.7390493372        1.9489355077        9.8754446227
  O         4.9716218836        4.8169459114        9.9414451514
  O         3.3715656433        7.7815821090        9.8754460309
  O         0.0000734419       -0.0000421577       22.5796691281
  O        -1.6857834661        2.9199475730       22.5796687057
  O        -3.3718207544        5.8395809808       22.5808502128
  O         3.3715684026        0.0002917504       22.5808502706
  O         1.6858253682        2.9198873891       22.5811077626
  O         0.0002532686        5.8395810378       22.5808499501
  O         6.7430634471       -0.0000423135       22.5796695050
  O         5.0573119719        2.9198870710       22.5811074017
  O         3.3715683099        5.8396794071       22.5811077311
  O         1.6867510366        0.9716558174        5.1370146746
  O        -0.0009300550        3.8948053008        5.1370140560
  O        -1.6857837953        6.8130146992        5.1495468678
  O         5.0563849095        0.9716558338        5.1370150545
  O         3.3715684336        3.8931510562        5.1415513142
  O         1.6838864414        6.8129937634        5.1370142911
  O         8.4289203788        0.9732875037        5.1358724667
  O         6.7440662569        3.8948055630        5.1370148876
  O         5.0592484591        6.8129937842        5.1370147859
  O         0.0066716334        1.9504291010       13.8361066109
  O        -1.6857861583        4.8696086277       13.8637748267
  O        -3.3688216199        7.7847173594       13.8637759840
  O         3.3715645748        2.0365011823       13.7548245150
  O         1.7636751484        4.8214687679       13.7548366204
  O        -0.0027458287        7.7847202105       13.8637746029
  O         6.7364662628        1.9504269910       13.8361069547
  O         4.9794714667        4.8214803628       13.7548249978
  O         3.3715664250        7.7785984888       13.8361063229
     188
 i =       11, E =     -6889.1477524959
 Zn        -0.0006906930        0.0003991777        5.6884777807
 Zn        -1.6857834624        2.9190659099        5.6884782818
 Zn        -3.3737643367        5.8384602588        5.6937390893
 Zn         3.3715679764        0.0025353799        5.6937393815
 Zn         1.6829450681        2.9182246559        5.6787814297
 Zn         0.0021963216        5.8384590588        5.6937397490
 Zn         6.7438274376        0.0003986972        5.6884790401
 Zn         5.0601922274        2.9182243187        5.6787802848
 Zn         3.3715679436        5.8430054859        5.6787817660
 Zn         1.6793068519        0.9739047874       14.4256809655
 Zn        -0.0027009243        3.8872366642       14.4256781635
 Zn        -1.6857835088        6.8130148714       14.4426993597
 Zn         5.0638264407        0.9739048610       14.4256768597
 Zn         3.3715706765        3.8931497067       14.5102048385
 Zn         1.6895558695        6.8183116118       14.4256780154
 Zn         8.4289194134        0.9732882657       14.4216320850
 Zn         6.7458387213        3.8872366083       14.4256766181
 Zn         5.0535789443        6.8183162583       14.4256811428
 Zn        -0.0010460314        1.9459714378       23.1488933007
 Zn        -1.6857834597        4.8657937470       23.1488642192
 Zn        -3.3721261234        7.7866250371       23.1488640531
 Zn         3.3715687749        1.9461270614       23.1499063076
 Zn         1.6853961887        4.8666633106       23.1499067086
 Zn         0.0005594326        7.7866252269       23.1488640805
 Zn         6.7441835266        1.9459712763       23.1488934549
 Zn         5.0577410121        4.8666630692       23.1499063206
 Zn         3.3715687416        7.7875109814       23.1488934347
 In        -0.0000277128        0.0000159918        0.0518791002
 In        -1.6857838488        2.9198313123        0.0518794448
 In        -3.3712702854        5.8398990386        0.0518786436
 In         3.3715682718       -0.0003440203        0.0518783766
 In         1.6856869422        2.9198072516        0.0512962765
 In        -0.0002979947        5.8398993352        0.0518788516
 In         6.7431643726        0.0000161538        0.0518790555
 In         5.0574496076        2.9198072738        0.0512962379
 In         3.3715682810        5.8398392993        0.0512962510
 In         1.6768959943        0.9737998557        8.7725254146
 In        -0.0039996776        3.8852004470        8.7725275094
 In        -1.6857851849        6.8130145996        8.7660993380
 In         5.0662373811        0.9737962402        8.7725268168
 In         3.3715678672        3.8931513602        8.6898998807
 In         1.6906704711        6.8204546853        8.7725276185
 In         8.4289185875        0.9732892550        8.7642125978
 In         6.7471376618        3.8852012788        8.7725261970
 In         5.0524652966        6.8204559244        8.7725258122
 In         0.0006290091        1.9469388412       17.5048159501
 In        -1.6857845638        4.8664152395       17.5044575321
 In        -3.3715872434        7.7863140842       17.5044615744
 In         3.3715668689        1.9411606191       17.5371636541
 In         1.6810931725        4.8691476699       17.5371620283
 In         0.0000209456        7.7863154655       17.5044572351
 In         6.7425053953        1.9469399420       17.5048154665
 In         5.0620410827        4.8691480692       17.5371632091
 In         3.3715678439        7.7855768352       17.5048161163
 Ga        -0.0000026877        0.0000014759       20.5787913971
 Ga        -1.6857841239        2.9198608520       20.5787903163
 Ga        -3.3708625090        5.8401342773       20.5822705032
 Ga         3.3715681448       -0.0008146467       20.5822705334
 Ga         1.6847531089        2.9192694247       20.5846173869
 Ga        -0.0007066726        5.8401350703       20.5822699185
 Ga         6.7431383929        0.0000013184       20.5787913004
 Ga         5.0583831250        2.9192682406       20.5846172617
 Ga         3.3715671920        5.8409170282       20.5846174215
 Ga         1.6859129204        0.9725041832        3.1233074348
 Ga        -0.0006150644        3.8936554272        3.1233073209
 Ga        -1.6857844072        6.8130151649        3.1249656774
 Ga         5.0572233101        0.9725041248        3.1233076456
 Ga         3.3715676997        3.8931517585        3.1227962102
 Ga         1.6850399006        6.8132958548        3.1233074323
 Ga         8.4289202297        0.9732879640        3.1235649580
 Ga         6.7437503208        3.8936547748        3.1233074787
 Ga         5.0580951431        6.8132950350        3.1233074726
 Ga        -0.0040190417        1.9442604812       11.8464297360
 Ga        -1.6857901122        4.8739356530       11.8512635007
 Ga        -3.3650654644        7.7825486374       11.8512630155
 Ga         3.3715539985        1.8276701730       11.8388290720
 Ga         1.5827969654        4.9258985909       11.8388313753
 Ga        -0.0064948078        7.7825596663       11.8512633102
 Ga         6.7471541576        1.9442558519       11.8464292503
 Ga         5.1603204420        4.9259041701       11.8388295233
 Ga         3.3715638156        7.7909410861       11.8464297304
  O         0.0001110741       -0.0000642242        3.1552725934
  O        -1.6857839340        2.9199909556        3.1552728407
  O        -3.3699373766        5.8406680527        3.1564553099
  O         3.3715687382       -0.0018828503        3.1564548869
  O         1.6861404300        2.9200693244        3.1575155211
  O        -0.0016306752        5.8406686133        3.1564540824
  O         6.7430264337       -0.0000636228        3.1552713572
  O         5.0569960903        2.9200691474        3.1575159187
  O         3.3715680280        5.8393157573        3.1575154775
  O         1.6737548299        0.9445029322       11.8754350247
  O        -0.0309400743        3.8971266768       11.8754353070
  O        -1.6857782987        6.8130116735       11.8753964737
  O         5.0693723777        0.9445151521       11.8754351896
  O         1.6668719503        6.8378215146       11.8754369409
  O         8.4289212265        0.9732872930       11.8750906247
  O         6.7740636698        3.8971278506       11.8754361518
  O         5.0762660462        6.8378249502       11.8754349429
  O        -0.0016935719        1.9455979402       20.5945195004
  O        -1.6857837103        4.8656040725       20.5958212531
  O        -3.3722904349        7.7867198896       20.5958211764
  O         3.3715681669        1.9464440316       20.5934575593
  O         1.6856695896        4.8665054456       20.5934578937
  O         0.0007234331        7.7867202121       20.5958215255
  O         6.7448311600        1.9455971721       20.5945194223
  O         5.0574662869        4.8665051549       20.5934580495
  O         3.3715681609        7.7882584671       20.5945193505
  O        -0.0018492621        0.0010674936        7.6996466803
  O        -1.6857834779        2.9177311048        7.6996467132
  O        -3.3953235271        5.8260181363        7.7194963210
  O         3.3715623954        0.0274271619        7.7194964921
  O         1.6813268767        2.9172911301        7.6996030157
  O         0.0237553987        5.8260121347        7.7194976357
  O         6.7449820681        0.0010647758        7.6996473580
  O         5.0618106823        2.9172886811        7.6996042643
  O         3.3715678523        5.8448732135        7.6996033145
  O         1.6970728013        0.9816585086       16.4108951970
  O         0.0129009833        3.8987414929       16.4108937781
  O        -1.6857827895        6.8130147590       16.4284656329
  O         5.0460584039        0.9816659087       16.4108927593
  O         3.3715695487        3.8931504448       16.4524923665
  O         1.6873936561        6.7990474013       16.4108936251
  O         8.4289194158        0.9732887067       16.4130487252
  O         6.7302338991        3.8987432562       16.4108927282
  O         5.0557472413        6.7990536890       16.4108952467
  O         0.0000733101        1.9466179264       25.1479351164
  O        -1.6857836661        4.8662032917       25.1480080029
  O        -3.3717721876        7.7864205199       25.1480079796
  O         3.3715682846        1.9465864032       25.1480762178
  O         1.6857936068        4.8664337109       25.1480766747
  O         0.0002046354        7.7864207716       25.1480077845
  O         6.7430632429        1.9466180170       25.1479350539
  O         5.0573428190        4.8664335729       25.1480763925
  O         3.3715682859        7.7862181844       25.1479351040
  O         0.0018802729       -0.0010855322       18.5851849171
  O        -1.6857848570        2.9220349503       18.5851828917
  O        -3.3687651667        5.8413439072       18.5944735556
  O         3.3715692407       -0.0032358306       18.5944735903
  O         1.6814595435        2.9173681654       18.5972428873
  O        -0.0028042038        5.8413463048       18.5944728334
  O         6.7412551868       -0.0010849444       18.5851837209
  O         5.0616767980        2.9173669237       18.5972436072
  O         3.3715668432        5.8447201649       18.5972428245
  O         1.6861075468        0.9736788070        1.1460232063
  O         0.0005003425        3.8932358080        1.1460233565
  O        -1.6857840845        6.8130157712        1.1456316193
  O         5.0570287087        0.9736790477        1.1460231917
  O         3.3715683121        3.8931513103        1.1458578600
  O         1.6859611084        6.8125392636        1.1460231059
  O         8.4289202702        0.9732871953        1.1455461644
  O         6.7426358746        3.8932362028        1.1460233839
  O         5.0571751198        6.8125395058        1.1460232163
  O         0.0041707859        1.9489860895        9.8752303323
  O        -1.6857835851        4.8694927816        9.8659213604
  O        -3.3689210206        7.7847744970        9.8659200240
  O         3.3715660608        2.0453181952        9.9399193078
  O         1.7713005862        4.8170662826        9.9399163540
  O        -0.0026443327        7.7847756161        9.8659211470
  O         6.7389631316        1.9489851407        9.8752295732
  O         4.9718368433        4.8170689369        9.9399195661
  O         3.3715663231        7.7814858848        9.8752304738
  O         0.0000430770       -0.0000248555       22.5797024958
  O        -1.6857837123        2.9199126607       22.5797020226
  O        -3.3718055257        5.8395895307       22.5807076417
  O         3.3715684939        0.0002743804       22.5807077526
  O         1.6857843979        2.9198633963       22.5809845473
  O         0.0002379983        5.8395896853       22.5807071877
  O         6.7430939712       -0.0000248415       22.5797029766
  O         5.0573530222        2.9198629891       22.5809841596
  O         3.3715683869        5.8397271005       22.5809846440
  O         1.6867038132        0.9719707695        5.1371084188
  O        -0.0006808808        3.8946062372        5.1371078975
  O        -1.6857836650        6.8130147971        5.1485266035
  O         5.0564326325        0.9719708688        5.1371088425
  O         3.3715684678        3.8931514051        5.1414362810
  O         1.6841836282        6.8128771823        5.1371080531
  O         8.4289202198        0.9732877950        5.1353997837
  O         6.7438175742        3.8946067422        5.1371088718
  O         5.0589520143        6.8128773259        5.1371084893
  O         0.0066562370        1.9504196231       13.8363653345
  O        -1.6857832674        4.8695502164       13.8636565086
  O        -3.3688721911        7.7847462869       13.8636577837
  O         3.3715644798        2.0347671513       13.7581804280
  O         1.7621674613        4.8223391567       13.7581872192
  O        -0.0026937674        7.7847469428       13.8636563450
  O         6.7364800297        1.9504189929       13.8363649635
  O         4.9809733357        4.8223474120       13.7581810459
  O         3.3715669319        7.7786165910       13.8363652538
     188
 i =       12, E =     -6889.1477539631
 Zn        -0.0007089866        0.0004097754        5.6884324110
 Zn        -1.6857834848        2.9190449456        5.6884326013
 Zn        -3.3737378997        5.8384751210        5.6936725192
 Zn         3.3715682763        0.0025049505        5.6936733169
 Zn         1.6830652903        2.9182939456        5.6796636799
 Zn         0.0021700740        5.8384742108        5.6936736489
 Zn         6.7438455311        0.0004091117        5.6884333914
 Zn         5.0600721671        2.9182935057        5.6796635570
 Zn         3.3715681267        5.8428669154        5.6796640622
 Zn         1.6794081791        0.9738116978       14.4255073392
 Zn        -0.0027312109        3.8873707946       14.4255043402
 Zn        -1.6857834435        6.8130148216       14.4426641043
 Zn         5.0637247685        0.9738136204       14.4255026219
 Zn         3.3715693617        3.8931504953       14.5081607478
 Zn         1.6894245234        6.8182705302       14.4255038759
 Zn         8.4289199548        0.9732880355       14.4215799662
 Zn         6.7458668825        3.8873701478       14.4255022668
 Zn         5.0537103656        6.8182750700       14.4255075611
 Zn        -0.0009975569        1.9459995541       23.1488791723
 Zn        -1.6857834107        4.8658290120       23.1487904936
 Zn        -3.3720955435        7.7866072573       23.1487900878
 Zn         3.3715687463        1.9461396174       23.1497907973
 Zn         1.6854071547        4.8666569033       23.1497908634
 Zn         0.0005288927        7.7866074396       23.1487902292
 Zn         6.7441350617        1.9459992503       23.1488795467
 Zn         5.0577300391        4.8666567460       23.1497905827
 Zn         3.3715687584        7.7874547985       23.1488794862
 In        -0.0000045121        0.0000025767        0.0519333475
 In        -1.6857838419        2.9198581696        0.0519339047
 In        -3.3712973660        5.8398834309        0.0518762971
 In         3.3715682952       -0.0003126213        0.0518763523
 In         1.6856921646        2.9198104503        0.0514261689
 In        -0.0002708546        5.8398837090        0.0518764354
 In         6.7431411699        0.0000025995        0.0519336174
 In         5.0574443035        2.9198102520        0.0514260973
 In         3.3715681268        5.8398330874        0.0514261779
 In         1.6769802333        0.9737342254        8.7724022552
 In        -0.0040148265        3.8853070149        8.7724042058
 In        -1.6857842237        6.8130136121        8.7660704988
 In         5.0661523097        0.9737327427        8.7724044674
 In         3.3715686489        3.8931511318        8.6904593087
 In         1.6905706686        6.8204147905        8.7724040964
 In         8.4289190263        0.9732890614        8.7647853210
 In         6.7471500875        3.8853061895        8.7724030746
 In         5.0525645365        6.8204156138        8.7724028423
 In         0.0006458795        1.9469482768       17.5049387930
 In        -1.6857846138        4.8664543173       17.5048339340
 In        -3.3715540154        7.7862950221       17.5048380642
 In         3.3715667078        1.9414113511       17.5359068981
 In         1.6813109801        4.8690220017       17.5359062212
 In        -0.0000129253        7.7862959357       17.5048335655
 In         6.7424880855        1.9469496003       17.5049373460
 In         5.0618240701        4.8690225725       17.5359062073
 In         3.3715678326        7.7855572941       17.5049391700
 Ga        -0.0000010687        0.0000005088       20.5787140070
 Ga        -1.6857840609        2.9198628643       20.5787123063
 Ga        -3.3709471843        5.8400854998       20.5819672681
 Ga         3.3715684425       -0.0007168869       20.5819673993
 Ga         1.6848314768        2.9193147527       20.5842468011
 Ga        -0.0006221675        5.8400860618       20.5819663766
 Ga         6.7431368214        0.0000005429       20.5787137587
 Ga         5.0583047743        2.9193134333       20.5842466000
 Ga         3.3715671340        5.8408264200       20.5842469575
 Ga         1.6859204664        0.9725683325        3.1234494327
 Ga        -0.0005556378        3.8936292289        3.1234495117
 Ga        -1.6857837457        6.8130150937        3.1250760830
 Ga         5.0572162520        0.9725682692        3.1234497992
 Ga         3.3715681958        3.8931513536        3.1229945189
 Ga         1.6850925206        6.8132573331        3.1234497940
 Ga         8.4289201534        0.9732879299        3.1236457845
 Ga         6.7436913836        3.8936295205        3.1234496562
 Ga         5.0580431352        6.8132568577        3.1234491777
 Ga        -0.0038273436        1.9443738136       11.8464626276
 Ga        -1.6857850983        4.8738114247       11.8512081313
 Ga        -3.3651746199        7.7826115530       11.8512080085
 Ga         3.3715524976        1.8321139219       11.8390782684
 Ga         1.5867032934        4.9236432144       11.8390797655
 Ga        -0.0063847023        7.7826175342       11.8512080074
 Ga         6.7469577794        1.9443692160       11.8464624260
 Ga         5.1564708180        4.9236832169       11.8390787199
 Ga         3.3715616529        7.7907183080       11.8464626497
  O         0.0001641212       -0.0000945841        3.1551570806
  O        -1.6857840016        2.9200520174        3.1551568220
  O        -3.3699986214        5.8406332739        3.1563421348
  O         3.3715690877       -0.0018119405        3.1563413288
  O         1.6861387436        2.9200680601        3.1572210457
  O        -0.0015687132        5.8406329592        3.1563411486
  O         6.7429735487       -0.0000943183        3.1551556123
  O         5.0569986994        2.9200678706        3.1572212051
  O         3.3715684220        5.8393176646        3.1572208950
  O         1.6744959913        0.9451113892       11.8753500500
  O        -0.0300243570        3.8974736311       11.8753505248
  O        -1.6857801022        6.8130127120       11.8752175772
  O         5.0686280545        0.9451212365       11.8753507675
  O         1.6670293351        6.8368547841       11.8753520566
  O         8.4289183099        0.9732889410       11.8748543382
  O         6.7731665861        3.8974695832       11.8753524669
  O         5.0761096033        6.8368782652       11.8753497895
  O        -0.0016307811        1.9456344232       20.5946894457
  O        -1.6857839301        4.8656048570       20.5959959458
  O        -3.3722896144        7.7867196546       20.5959955897
  O         3.3715680433        1.9465060261       20.5938932038
  O         1.6857230972        4.8664745451       20.5938938437
  O         0.0007230650        7.7867197958       20.5959961909
  O         6.7447684750        1.9456336441       20.5946898844
  O         5.0574126025        4.8664743110       20.5938940443
  O         3.3715680581        7.7881857546       20.5946890549
  O        -0.0019270006        0.0011122229        7.6995649165
  O        -1.6857832955        2.9176418006        7.6995643742
  O        -3.3951104577        5.8261418529        7.7189469086
  O         3.3715631934        0.0271809034        7.7189478770
  O         1.6813311679        2.9172942854        7.6996805858
  O         0.0235434044        5.8261345844        7.7189484573
  O         6.7450596885        0.0011097140        7.6995650871
  O         5.0618067322        2.9172909131        7.6996823217
  O         3.3715674968        5.8448679336        7.6996809176
  O         1.6968028384        0.9814624861       16.4109542750
  O         0.0125963650        3.8986058490       16.4109527674
  O        -1.6857831546        6.8130143520       16.4287429239
  O         5.0463280099        0.9814699515       16.4109515197
  O         3.3715687614        3.8931507607       16.4507749004
  O         1.6873589347        6.7993785791       16.4109523978
  O         8.4289193585        0.9732882976       16.4131950533
  O         6.7305389791        3.8986071377       16.4109514812
  O         5.0557819722        6.7993855694       16.4109544696
  O         0.0000725465        1.9466173550       25.1480354449
  O        -1.6857837778        4.8662243050       25.1480494021
  O        -3.3717539335        7.7864102866       25.1480491053
  O         3.3715682621        1.9466074983       25.1481106561
  O         1.6858118064        4.8664231095       25.1481110250
  O         0.0001863858        7.7864103097       25.1480490358
  O         6.7430641068        1.9466173600       25.1480354473
  O         5.0573246542        4.8664230273       25.1481109470
  O         3.3715683693        7.7862190003       25.1480353104
  O         0.0018090996       -0.0010445680       18.5853741890
  O        -1.6857853329        2.9219536292       18.5853711926
  O        -3.3690486841        5.8411810089       18.5944580777
  O         3.3715693233       -0.0029084862       18.5944582140
  O         1.6817644830        2.9175432165       18.5969102076
  O        -0.0025201009        5.8411822983       18.5944571171
  O         6.7413266418       -0.0010437412       18.5853725693
  O         5.0613715901        2.9175430834       18.5969106299
  O         3.3715677104        5.8443687549       18.5969101522
  O         1.6861028184        0.9736393230        1.1460709163
  O         0.0004637323        3.8932519227        1.1460712638
  O        -1.6857843722        6.8130153810        1.1457607280
  O         5.0570330803        0.9736395610        1.1460710521
  O         3.3715681981        3.8931514195        1.1458308792
  O         1.6859288229        6.8125629253        1.1460709551
  O         8.4289203886        0.9732876334        1.1456772936
  O         6.7426722749        3.8932519479        1.1460712896
  O         5.0572072648        6.8125630933        1.1460708439
  O         0.0041744168        1.9489888118        9.8751956660
  O        -1.6857856918        4.8693199371        9.8657542718
  O        -3.3690691977        7.7848598255        9.8657529558
  O         3.3715646331        2.0454748487        9.9392341219
  O         1.7714324806        4.8169904426        9.9392326772
  O        -0.0024962406        7.7848636228        9.8657542135
  O         6.7389616340        1.9489857131        9.8751957430
  O         4.9717006041        4.8169924061        9.9392345295
  O         3.3715661015        7.7814811963        9.8751958114
  O         0.0000201622       -0.0000117170       22.5796727924
  O        -1.6857837888        2.9198862948       22.5796719918
  O        -3.3717819314        5.8396030318       22.5805352691
  O         3.3715684240        0.0002471795       22.5805355030
  O         1.6857471856        2.9198416734       22.5808170800
  O         0.0002144400        5.8396031786       22.5805347196
  O         6.7431168597       -0.0000117634       22.5796732598
  O         5.0573904064        2.9198412673       22.5808166583
  O         3.3715684685        5.8397703055       22.5808172509
  O         1.6866616193        0.9721463241        5.1371844113
  O        -0.0005498477        3.8944818760        5.1371840568
  O        -1.6857835081        6.8130147257        5.1482482535
  O         5.0564747589        0.9721467686        5.1371847948
  O         3.3715686197        3.8931515006        5.1414373701
  O         1.6843569311        6.8128258317        5.1371842583
  O         8.4289200008        0.9732878828        5.1352006609
  O         6.7436862514        3.8944820653        5.1371849885
  O         5.0587788646        6.8128260723        5.1371841954
  O         0.0066345455        1.9504070847       13.8364816546
  O        -1.6857842693        4.8695450900       13.8638138477
  O        -3.3688756959        7.7847482881       13.8638155988
  O         3.3715627034        2.0340118763       13.7594669820
  O         1.7615106920        4.8227180869       13.7594703257
  O        -0.0026898501        7.7847504104       13.8638137611
  O         6.7365023583        1.9504060260       13.8364808347
  O         4.9816266545        4.8227265909       13.7594674635
  O         3.3715670536        7.7786417559       13.8364817412
     188
 i =       13, E =     -6889.1477589334
 Zn        -0.0006980960        0.0004033767        5.6884962666
 Zn        -1.6857836303        2.9190575517        5.6884966906
 Zn        -3.3738038161        5.8384371426        5.6937265921
 Zn         3.3715680934        0.0025811660        5.6937272727
 Zn         1.6829530735        2.9182293627        5.6794557299
 Zn         0.0022360315        5.8384362243        5.6937274437
 Zn         6.7438345405        0.0004029472        5.6884974365
 Zn         5.0601840838        2.9182287390        5.6794551933
 Zn         3.3715679020        5.8429963110        5.6794560419
 Zn         1.6792312292        0.9737671849       14.4254725393
 Zn        -0.0028590763        3.8872394294       14.4254705740
 Zn        -1.6857837095        6.8130150049       14.4428474920
 Zn         5.0639027824        0.9737679974       14.4254693358
 Zn         3.3715690436        3.8931507480       14.5082939530
 Zn         1.6894744805        6.8184469721       14.4254701196
 Zn         8.4289196926        0.9732882012       14.4215377055
 Zn         6.7459955074        3.8872387310       14.4254690381
 Zn         5.0536604911        6.8184504823       14.4254727346
 Zn        -0.0010027604        1.9459965253       23.1488894306
 Zn        -1.6857833697        4.8658224390       23.1488002254
 Zn        -3.3721012772        7.7866106871       23.1487999901
 Zn         3.3715687142        1.9461443977       23.1498021882
 Zn         1.6854111249        4.8666546262       23.1498023385
 Zn         0.0005345912        7.7866107491       23.1488000794
 Zn         6.7441403142        1.9459962782       23.1488896661
 Zn         5.0577259988        4.8666544266       23.1498020515
 Zn         3.3715686930        7.7874609436       23.1488896449
 In        -0.0000139524        0.0000080726        0.0519172817
 In        -1.6857838335        2.9198472214        0.0519176637
 In        -3.3712795413        5.8398936797        0.0518596419
 In         3.3715682747       -0.0003331852        0.0518596378
 In         1.6857036829        2.9198170246        0.0513741421
 In        -0.0002885514        5.8398938775        0.0518598770
 In         6.7431505860        0.0000080973        0.0519174668
 In         5.0574328098        2.9198169169        0.0513741240
 In         3.3715681405        5.8398198926        0.0513741686
 In         1.6768717407        0.9737341217        8.7725512436
 In        -0.0040690244        3.8852120603        8.7725523707
 In        -1.6857843203        6.8130141952        8.7659382432
 In         5.0662613970        0.9737322031        8.7725520319
 In         3.3715681099        3.8931514334        8.6901140318
 In         1.6906256712        6.8205090725        8.7725522287
 In         8.4289189862        0.9732889050        8.7645347836
 In         6.7472052415        3.8852121417        8.7725507506
 In         5.0525099680        6.8205098008        8.7725517891
 In         0.0006462316        1.9469486493       17.5048116120
 In        -1.6857844543        4.8664181575       17.5046925525
 In        -3.3715852359        7.7863129257       17.5046969440
 In         3.3715666641        1.9413586336       17.5361904234
 In         1.6812651760        4.8690483858       17.5361898201
 In         0.0000183594        7.7863138881       17.5046923331
 In         6.7424877360        1.9469500119       17.5048100367
 In         5.0618696198        4.8690490622       17.5361898587
 In         3.3715679488        7.7855568443       17.5048120133
 Ga        -0.0000076610        0.0000043659       20.5788007862
 Ga        -1.6857841840        2.9198552355       20.5787995028
 Ga        -3.3709181216        5.8401022378       20.5821142105
 Ga         3.3715682456       -0.0007504637       20.5821142706
 Ga         1.6848072542        2.9193005621       20.5844024592
 Ga        -0.0006510377        5.8401029346       20.5821134086
 Ga         6.7431433534        0.0000042738       20.5788004329
 Ga         5.0583290557        2.9192995053       20.5844022198
 Ga         3.3715672405        5.8408545779       20.5844025417
 Ga         1.6859148961        0.9725477935        3.1233682527
 Ga        -0.0005762956        3.8936349655        3.1233682201
 Ga        -1.6857841166        6.8130151548        3.1249969419
 Ga         5.0572215765        0.9725478858        3.1233684093
 Ga         3.3715678751        3.8931515601        3.1229494802
 Ga         1.6850771786        6.8132723799        3.1233683695
 Ga         8.4289200144        0.9732878498        3.1235941291
 Ga         6.7437117634        3.8936346355        3.1233683661
 Ga         5.0580582802        6.8132718128        3.1233681420
 Ga        -0.0039555001        1.9442990404       11.8464625094
 Ga        -1.6857876581        4.8739107614       11.8512566297
 Ga        -3.3650876529        7.7825614392       11.8512561943
 Ga         3.3715531838        1.8300417535       11.8388392110
 Ga         1.5848875332        4.9246917356       11.8388400097
 Ga        -0.0064722417        7.7825702186       11.8512565940
 Ga         6.7470899414        1.9442930108       11.8464623488
 Ga         5.1582657868        4.9247189909       11.8388394923
 Ga         3.3715621975        7.7908666748       11.8464625577
  O         0.0001688768       -0.0000974027        3.1552184025
  O        -1.6857839188        2.9200575468        3.1552183297
  O        -3.3699770463        5.8406453071        3.1564513302
  O         3.3715690190       -0.0018368703        3.1564509461
  O         1.6861546430        2.9200773405        3.1573294496
  O        -0.0015905702        5.8406455332        3.1564506052
  O         6.7429684978       -0.0000971085        3.1552176713
  O         5.0569823085        2.9200772561        3.1573296047
  O         3.3715683191        5.8392993239        3.1573293266
  O         1.6741034411        0.9446699949       11.8753382648
  O        -0.0306084869        3.8973521339       11.8753389399
  O        -1.6857794291        6.8130122633       11.8753263956
  O         5.0690218865        0.9446822184       11.8753388507
  O         1.6668422754        6.8374217301       11.8753397950
  O         8.4289207680        0.9732875097       11.8749604404
  O         6.7737437750        3.8973481458       11.8753398167
  O         5.0762956587        6.8374392389       11.8753381151
  O        -0.0016492828        1.9456237408       20.5944803131
  O        -1.6857837660        4.8655821994       20.5957873546
  O        -3.3723093753        7.7867309502       20.5957872433
  O         3.3715682208        1.9465006193       20.5936061167
  O         1.6857186546        4.8664770818       20.5936062720
  O         0.0007425847        7.7867312148       20.5957876204
  O         6.7447868013        1.9456228796       20.5944804753
  O         5.0574172676        4.8664769014       20.5936065593
  O         3.3715680696        7.7882071832       20.5944803306
  O        -0.0018976809        0.0010954736        7.6996857022
  O        -1.6857835807        2.9176756384        7.6996853976
  O        -3.3954181301        5.8259640848        7.7192846652
  O         3.3715625887        0.0275361366        7.7192853587
  O         1.6812514958        2.9172479043        7.6996426971
  O         0.0238508680        5.8259569843        7.7192860642
  O         6.7450306076        0.0010932148        7.6996858593
  O         5.0618867227        2.9172450039        7.6996438778
  O         3.3715674524        5.8449601477        7.6996429467
  O         1.6969286833        0.9815491665       16.4108130080
  O         0.0127347317        3.8986713933       16.4108118589
  O        -1.6857830175        6.8130145487       16.4287588000
  O         5.0462020501        0.9815564102       16.4108109573
  O         3.3715687600        3.8931508853       16.4507883044
  O         1.6873711448        6.7992262847       16.4108115784
  O         8.4289192897        0.9732883711       16.4130406451
  O         6.7304006616        3.8986732061       16.4108108966
  O         5.0557698560        6.7992331106       16.4108131392
  O         0.0000676402        1.9466145272       25.1479947783
  O        -1.6857837322        4.8662162323       25.1480141425
  O        -3.3717609272        7.7864142194       25.1480139582
  O         3.3715682874        1.9465829508       25.1480719666
  O         1.6857905231        4.8664354335       25.1480722518
  O         0.0001933383        7.7864142511       25.1480139501
  O         6.7430690622        1.9466145308       25.1479948389
  O         5.0573459476        4.8664353666       25.1480721353
  O         3.3715683439        7.7862247939       25.1479947614
  O         0.0018329501       -0.0010581700       18.5852597813
  O        -1.6857852546        2.9219808472       18.5852571154
  O        -3.3689996360        5.8412090309       18.5944723684
  O         3.3715693964       -0.0029652051       18.5944724310
  O         1.6816865506        2.9174987724       18.5969664664
  O        -0.0025693144        5.8412107726       18.5944715481
  O         6.7413024267       -0.0010574509       18.5852579016
  O         5.0614496158        2.9174980642       18.5969668284
  O         3.3715673287        5.8444582170       18.5969663993
  O         1.6861175575        0.9736514340        1.1460390687
  O         0.0004815988        3.8932583970        1.1460392178
  O        -1.6857842686        6.8130152951        1.1456848404
  O         5.0570185418        0.9736516385        1.1460390092
  O         3.3715682110        3.8931513753        1.1458561564
  O         1.6859321631        6.8125443161        1.1460389740
  O         8.4289203863        0.9732877011        1.1456248818
  O         6.7426544776        3.8932586246        1.1460392335
  O         5.0572040346        6.8125443670        1.1460390312
  O         0.0041842784        1.9489935839        9.8752531272
  O        -1.6857856688        4.8695420925        9.8657299702
  O        -3.3688775940        7.7847493398        9.8657286630
  O         3.3715667855        2.0455279055        9.9396997294
  O         1.7714773116        4.8169643959        9.9396992642
  O        -0.0026881657        7.7847521684        9.8657301295
  O         6.7389513819        1.9489918546        9.8752529830
  O         4.9716561942        4.8169638471        9.9396999842
  O         3.3715665002        7.7814702957        9.8752533672
  O         0.0000197749       -0.0000114116       22.5797134929
  O        -1.6857836752        2.9198858270       22.5797130441
  O        -3.3717807268        5.8396038303       22.5806143980
  O         3.3715684453        0.0002458116       22.5806145372
  O         1.6857404690        2.9198379494       22.5808991602
  O         0.0002132356        5.8396039184       22.5806139128
  O         6.7431172083       -0.0000114688       22.5797139258
  O         5.0573969709        2.9198375406       22.5808987629
  O         3.3715683988        5.8397778760       22.5808992926
  O         1.6866565801        0.9720606950        5.1371600020
  O        -0.0006266966        3.8945204288        5.1371596250
  O        -1.6857834766        6.8130148240        5.1484783409
  O         5.0564798217        0.9720607926        5.1371602944
  O         3.3715685614        3.8931514156        5.1415361923
  O         1.6842850932        6.8128732701        5.1371597218
  O         8.4289199800        0.9732878410        5.1352643906
  O         6.7437629742        3.8945206800        5.1371605247
  O         5.0588505841        6.8128731979        5.1371598971
  O         0.0066337802        1.9504065974       13.8362788271
  O        -1.6857841241        4.8695830606       13.8638980343
  O        -3.3688432265        7.7847295931       13.8638992900
  O         3.3715642120        2.0345761066       13.7583499577
  O         1.7619986894        4.8224363251       13.7583511416
  O        -0.0027226102        7.7847313028       13.8638979856
  O         6.7365024648        1.9504058482       13.8362783041
  O         4.9811388771        4.8224430772       13.7583502702
  O         3.3715671907        7.7786426707       13.8362789034
     188
 i =       14, E =     -6889.1477595364
 Zn        -0.0006885193        0.0003977134        5.6884595706
 Zn        -1.6857838080        2.9190685188        5.6884597380
 Zn        -3.3738543864        5.8384078208        5.6936799373
 Zn         3.3715679181        0.0026398494        5.6936803161
 Zn         1.6828720506        2.9181827460        5.6794434979
 Zn         0.0022867788        5.8384070516        5.6936803759
 Zn         6.7438249931        0.0003975280        5.6884601326
 Zn         5.0602648057        2.9181819753        5.6794429046
 Zn         3.3715678545        5.8430897240        5.6794436678
 Zn         1.6790750908        0.9736809252       14.4254336105
 Zn        -0.0030125567        3.8871473477       14.4254317592
 Zn        -1.6857835798        6.8130149289       14.4431251698
 Zn         5.0640591995        0.9736817004       14.4254310441
 Zn         3.3715694172        3.8931505845       14.5077257429
 Zn         1.6894776126        6.8186259769       14.4254314809
 Zn         8.4289198956        0.9732880819       14.4215663561
 Zn         6.7461486365        3.8871462065       14.4254307602
 Zn         5.0536572760        6.8186286408       14.4254336724
 Zn        -0.0009884693        1.9460047336       23.1489277427
 Zn        -1.6857833039        4.8658277169       23.1488121038
 Zn        -3.3720967713        7.7866081881       23.1488119457
 Zn         3.3715686903        1.9461549733       23.1498011331
 Zn         1.6854201697        4.8666494290       23.1498013045
 Zn         0.0005300960        7.7866081623       23.1488120579
 Zn         6.7441260052        1.9460044961       23.1489278632
 Zn         5.0577169026        4.8666492153       23.1498010328
 Zn         3.3715686108        7.7874445328       23.1489278232
 In        -0.0000139688        0.0000081129        0.0518829360
 In        -1.6857838601        2.9198472018        0.0518830308
 In        -3.3712750448        5.8398962216        0.0518043369
 In         3.3715682625       -0.0003383396        0.0518044003
 In         1.6857169665        2.9198246676        0.0513349812
 In        -0.0002928839        5.8398963214        0.0518046048
 In         6.7431505173        0.0000080771        0.0518829319
 In         5.0574195163        2.9198246615        0.0513349273
 In         3.3715681858        5.8398046473        0.0513350281
 In         1.6768122928        0.9737058023        8.7726241038
 In        -0.0041231872        3.8851740668        8.7726247670
 In        -1.6857835625        6.8130143767        8.7656951060
 In         5.0663209681        0.9737049368        8.7726240086
 In         3.3715685067        3.8931511660        8.6897707802
 In         1.6906312046        6.8205746014        8.7726246642
 In         8.4289193052        0.9732884499        8.7643811709
 In         6.7472590452        3.8851747572        8.7726230376
 In         5.0525043080        6.8205756083        8.7726245012
 In         0.0006624631        1.9469580830       17.5048140707
 In        -1.6857843009        4.8663971948       17.5047830854
 In        -3.3716034573        7.7863233637       17.5047872803
 In         3.3715665525        1.9413905041       17.5360919532
 In         1.6812928238        4.8690323784       17.5360917879
 In         0.0000364336        7.7863242579       17.5047830103
 In         6.7424714230        1.9469595525       17.5048122995
 In         5.0618418853        4.8690333380       17.5360915868
 In         3.3715681988        7.7855380552       17.5048143655
 Ga        -0.0000051011        0.0000028916       20.5788530423
 Ga        -1.6857842032        2.9198582297       20.5788521726
 Ga        -3.3709317660        5.8400943261       20.5821447327
 Ga         3.3715682247       -0.0007346898       20.5821447645
 Ga         1.6848099918        2.9193020799       20.5844215677
 Ga        -0.0006372760        5.8400950341       20.5821439837
 Ga         6.7431406847        0.0000027898       20.5788524067
 Ga         5.0583263055        2.9193010950       20.5844211989
 Ga         3.3715673199        5.8408514601       20.5844216409
 Ga         1.6859130996        0.9725379427        3.1233376912
 Ga        -0.0005858803        3.8936384876        3.1233376457
 Ga        -1.6857842812        6.8130151547        3.1249758211
 Ga         5.0572230769        0.9725379783        3.1233377433
 Ga         3.3715677353        3.8931516433        3.1229591326
 Ga         1.6850692940        6.8132788677        3.1233377102
 Ga         8.4289199833        0.9732877886        3.1235826258
 Ga         6.7437210942        3.8936379912        3.1233377306
 Ga         5.0580660470        6.8132781792        3.1233376493
 Ga        -0.0040075924        1.9442676191       11.8464489382
 Ga        -1.6857863127        4.8739671688       11.8512524401
 Ga        -3.3650397832        7.7825337898       11.8512521034
 Ga         3.3715549579        1.8295839002       11.8386341471
 Ga         1.5844899395        4.9249214854       11.8386346053
 Ga        -0.0065204988        7.7825409618       11.8512525316
 Ga         6.7471416873        1.9442631531       11.8464486455
 Ga         5.1586633062        4.9249466714       11.8386341772
 Ga         3.3715631416        7.7909276303       11.8464489541
  O         0.0001839496       -0.0001061677        3.1553021540
  O        -1.6857839307        2.9200749051        3.1553021388
  O        -3.3699705043        5.8406488429        3.1565808913
  O         3.3715688465       -0.0018444054        3.1565809188
  O         1.6861628976        2.9200821805        3.1574402779
  O        -0.0015971081        5.8406492758        3.1565806240
  O         6.7429531808       -0.0001058177        3.1553022420
  O         5.0569738289        2.9200820663        3.1574404073
  O         3.3715682215        5.8392897931        3.1574401605
  O         1.6739677095        0.9444498116       11.8752960353
  O        -0.0308672681        3.8973430772       11.8752970587
  O        -1.6857801955        6.8130127221       11.8754172403
  O         5.0691587734        0.9444610089       11.8752971261
  O         1.6667205059        6.8376507657       11.8752970230
  O         8.4289201779        0.9732879204       11.8749647301
  O         6.7740039513        3.8973402157       11.8752972930
  O         5.0764183752        6.8376672488       11.8752959611
  O        -0.0016456161        1.9456257965       20.5942776254
  O        -1.6857836698        4.8655711282       20.5956092804
  O        -3.3723189897        7.7867364842       20.5956092077
  O         3.3715683088        1.9465295150       20.5933950708
  O         1.6857438710        4.8664625383       20.5933948632
  O         0.0007521514        7.7867367140       20.5956094319
  O         6.7447831147        1.9456249184       20.5942774966
  O         5.0573922600        4.8664623067       20.5933951497
  O         3.3715680112        7.7882030242       20.5942777948
  O        -0.0019032765        0.0010988114        7.6997729285
  O        -1.6857836950        2.9176692086        7.6997723638
  O        -3.3956544523        5.8258276128        7.7194404853
  O         3.3715620257        0.0278087846        7.7194408204
  O         1.6811572979        2.9171934633        7.6995861876
  O         0.0240872334        5.8258203719        7.7194415312
  O         6.7450366473        0.0010969038        7.6997724462
  O         5.0619808035        2.9171909562        7.6995867245
  O         3.3715671041        5.8450690644        7.6995863038
  O         1.6969556491        0.9815629990       16.4107153120
  O         0.0127604893        3.8986878280       16.4107138425
  O        -1.6857828927        6.8130145495       16.4289245089
  O         5.0461748611        0.9815698808       16.4107132246
  O         3.3715686335        3.8931510422       16.4501776635
  O         1.6873697124        6.7991959945       16.4107137779
  O         8.4289192500        0.9732883168       16.4129845652
  O         6.7303750428        3.8986902855       16.4107130954
  O         5.0557713834        6.7992028112       16.4107153065
  O         0.0000663485        1.9466136926       25.1479690118
  O        -1.6857837228        4.8662138984       25.1479694252
  O        -3.3717629788        7.7864154313       25.1479692859
  O         3.3715683200        1.9465759458       25.1480248566
  O         1.6857844945        4.8664389645       25.1480250441
  O         0.0001953228        7.7864153422       25.1479693991
  O         6.7430704150        1.9466137072       25.1479690927
  O         5.0573520122        4.8664389267       25.1480249181
  O         3.3715683805        7.7862264306       25.1479690033
  O         0.0018221020       -0.0010518870       18.5851402541
  O        -1.6857850668        2.9219680873       18.5851377009
  O        -3.3690425044        5.8411842784       18.5944122764
  O         3.3715691506       -0.0029157690       18.5944123235
  O         1.6817133904        2.9175146606       18.5968308459
  O        -0.0025264815        5.8411860108       18.5944116208
  O         6.7413130716       -0.0010513717       18.5851377924
  O         5.0614226704        2.9175135592       18.5968310226
  O         3.3715670386        5.8444269329       18.5968308249
  O         1.6861277528        0.9736513418        1.1460773155
  O         0.0004866472        3.8932671390        1.1460773625
  O        -1.6857841894        6.8130151067        1.1457291489
  O         5.0570085970        0.9736515207        1.1460772048
  O         3.3715681755        3.8931513613        1.1459008257
  O         1.6859271624        6.8125357979        1.1460772253
  O         8.4289202980        0.9732878947        1.1456770054
  O         6.7426494621        3.8932673469        1.1460773381
  O         5.0572091488        6.8125357192        1.1460772816
  O         0.0041707751        1.9489852509        9.8752565057
  O        -1.6857864824        4.8697167530        9.8656189117
  O        -3.3687261110        7.7846620070        9.8656178602
  O         3.3715672483        2.0456800535        9.9398686327
  O         1.7716088281        4.8168881245        9.9398675642
  O        -0.0028394859        7.7846654553        9.8656192942
  O         6.7389658414        1.9489835226        9.8752561332
  O         4.9715249456        4.8168873643        9.9398686351
  O         3.3715666595        7.7814861319        9.8752566904
  O         0.0000095090       -0.0000054378       22.5797035908
  O        -1.6857836144        2.9198740037       22.5797035886
  O        -3.3717698089        5.8396102110       22.5806003454
  O         3.3715684676        0.0002332475       22.5806003925
  O         1.6857198939        2.9198262230       22.5809038318
  O         0.0002023607        5.8396102789       22.5805999187
  O         6.7431274338       -0.0000055011       22.5797038941
  O         5.0574173599        2.9198258433       22.5809034357
  O         3.3715683199        5.8398014692       22.5809039552
  O         1.6866416005        0.9720206518        5.1372213122
  O        -0.0006690361        3.8945277384        5.1372210541
  O        -1.6857835087        6.8130149332        5.1486911022
  O         5.0564947232        0.9720204751        5.1372215872
  O         3.3715684859        3.8931513426        5.1416970041
  O         1.6842576633        6.8129063600        5.1372210481
  O         8.4289200881        0.9732878270        5.1353330960
  O         6.7438050404        3.8945278585        5.1372217880
  O         5.0588780907        6.8129061066        5.1372212687
  O         0.0066149182        1.9503958971       13.8360567135
  O        -1.6857846479        4.8696221691       13.8639503744
  O        -3.3688089391        7.7847098819       13.8639515836
  O         3.3715645714        2.0349352645       13.7575957332
  O         1.7623098139        4.8222567300       13.7575968206
  O        -0.0027566868        7.7847121702       13.8639503750
  O         6.7365211147        1.9503948832       13.8360563477
  O         4.9808282657        4.8222628656       13.7575958635
  O         3.3715671938        7.7786643035       13.8360567665
     188
 i =       15, E =     -6889.1477592085
 Zn        -0.0006885193        0.0003977134        5.6884595706
 Zn        -1.6857838080        2.9190685188        5.6884597380
 Zn        -3.3738543864        5.8384078208        5.6936799373
 Zn         3.3715679181        0.0026398494        5.6936803161
 Zn         1.6828720506        2.9181827460        5.6794434979
 Zn         0.0022867788        5.8384070516        5.6936803759
 Zn         6.7438249931        0.0003975280        5.6884601326
 Zn         5.0602648057        2.9181819753        5.6794429046
 Zn         3.3715678545        5.8430897240        5.6794436678
 Zn         1.6790750908        0.9736809252       14.4254336105
 Zn        -0.0030125567        3.8871473477       14.4254317592
 Zn        -1.6857835798        6.8130149289       14.4431251698
 Zn         5.0640591995        0.9736817004       14.4254310441
 Zn         3.3715694172        3.8931505845       14.5077257429
 Zn         1.6894776126        6.8186259769       14.4254314809
 Zn         8.4289198956        0.9732880819       14.4215663561
 Zn         6.7461486365        3.8871462065       14.4254307602
 Zn         5.0536572760        6.8186286408       14.4254336724
 Zn        -0.0009884693        1.9460047336       23.1489277427
 Zn        -1.6857833039        4.8658277169       23.1488121038
 Zn        -3.3720967713        7.7866081881       23.1488119457
 Zn         3.3715686903        1.9461549733       23.1498011331
 Zn         1.6854201697        4.8666494290       23.1498013045
 Zn         0.0005300960        7.7866081623       23.1488120579
 Zn         6.7441260052        1.9460044961       23.1489278632
 Zn         5.0577169026        4.8666492153       23.1498010328
 Zn         3.3715686108        7.7874445328       23.1489278232
 In        -0.0000139688        0.0000081129        0.0518829360
 In        -1.6857838601        2.9198472018        0.0518830308
 In        -3.3712750448        5.8398962216        0.0518043369
 In         3.3715682625       -0.0003383396        0.0518044003
 In         1.6857169665        2.9198246676        0.0513349812
 In        -0.0002928839        5.8398963214        0.0518046048
 In         6.7431505173        0.0000080771        0.0518829319
 In         5.0574195163        2.9198246615        0.0513349273
 In         3.3715681858        5.8398046473        0.0513350281
 In         1.6768122928        0.9737058023        8.7726241038
 In        -0.0041231872        3.8851740668        8.7726247670
 In        -1.6857835625        6.8130143767        8.7656951060
 In         5.0663209681        0.9737049368        8.7726240086
 In         3.3715685067        3.8931511660        8.6897707802
 In         1.6906312046        6.8205746014        8.7726246642
 In         8.4289193052        0.9732884499        8.7643811709
 In         6.7472590452        3.8851747572        8.7726230376
 In         5.0525043080        6.8205756083        8.7726245012
 In         0.0006624631        1.9469580830       17.5048140707
 In        -1.6857843009        4.8663971948       17.5047830854
 In        -3.3716034573        7.7863233637       17.5047872803
 In         3.3715665525        1.9413905041       17.5360919532
 In         1.6812928238        4.8690323784       17.5360917879
 In         0.0000364336        7.7863242579       17.5047830103
 In         6.7424714230        1.9469595525       17.5048122995
 In         5.0618418853        4.8690333380       17.5360915868
 In         3.3715681988        7.7855380552       17.5048143655
 Ga        -0.0000051011        0.0000028916       20.5788530423
 Ga        -1.6857842032        2.9198582297       20.5788521726
 Ga        -3.3709317660        5.8400943261       20.5821447327
 Ga         3.3715682247       -0.0007346898       20.5821447645
 Ga         1.6848099918        2.9193020799       20.5844215677
 Ga        -0.0006372760        5.8400950341       20.5821439837
 Ga         6.7431406847        0.0000027898       20.5788524067
 Ga         5.0583263055        2.9193010950       20.5844211989
 Ga         3.3715673199        5.8408514601       20.5844216409
 Ga         1.6859130996        0.9725379427        3.1233376912
 Ga        -0.0005858803        3.8936384876        3.1233376457
 Ga        -1.6857842812        6.8130151547        3.1249758211
 Ga         5.0572230769        0.9725379783        3.1233377433
 Ga         3.3715677353        3.8931516433        3.1229591326
 Ga         1.6850692940        6.8132788677        3.1233377102
 Ga         8.4289199833        0.9732877886        3.1235826258
 Ga         6.7437210942        3.8936379912        3.1233377306
 Ga         5.0580660470        6.8132781792        3.1233376493
 Ga        -0.0040075924        1.9442676191       11.8464489382
 Ga        -1.6857863127        4.8739671688       11.8512524401
 Ga        -3.3650397832        7.7825337898       11.8512521034
 Ga         3.3715549579        1.8295839002       11.8386341471
 Ga         1.5844899395        4.9249214854       11.8386346053
 Ga        -0.0065204988        7.7825409618       11.8512525316
 Ga         6.7471416873        1.9442631531       11.8464486455
 Ga         5.1586633062        4.9249466714       11.8386341772
 Ga         3.3715631416        7.7909276303       11.8464489541
  O         0.0001839496       -0.0001061677        3.1553021540
  O        -1.6857839307        2.9200749051        3.1553021388
  O        -3.3699705043        5.8406488429        3.1565808913
  O         3.3715688465       -0.0018444054        3.1565809188
  O         1.6861628976        2.9200821805        3.1574402779
  O        -0.0015971081        5.8406492758        3.1565806240
  O         6.7429531808       -0.0001058177        3.1553022420
  O         5.0569738289        2.9200820663        3.1574404073
  O         3.3715682215        5.8392897931        3.1574401605
  O         1.6739677095        0.9444498116       11.8752960353
  O        -0.0308672681        3.8973430772       11.8752970587
  O        -1.6857801955        6.8130127221       11.8754172403
  O         5.0691587734        0.9444610089       11.8752971261
  O         1.6667205059        6.8376507657       11.8752970230
  O         8.4289201779        0.9732879204       11.8749647301
  O         6.7740039513        3.8973402157       11.8752972930
  O         5.0764183752        6.8376672488       11.8752959611
  O        -0.0016456161        1.9456257965       20.5942776254
  O        -1.6857836698        4.8655711282       20.5956092804
  O        -3.3723189897        7.7867364842       20.5956092077
  O         3.3715683088        1.9465295150       20.5933950708
  O         1.6857438710        4.8664625383       20.5933948632
  O         0.0007521514        7.7867367140       20.5956094319
  O         6.7447831147        1.9456249184       20.5942774966
  O         5.0573922600        4.8664623067       20.5933951497
  O         3.3715680112        7.7882030242       20.5942777948
  O        -0.0019032765        0.0010988114        7.6997729285
  O        -1.6857836950        2.9176692086        7.6997723638
  O        -3.3956544523        5.8258276128        7.7194404853
  O         3.3715620257        0.0278087846        7.7194408204
  O         1.6811572979        2.9171934633        7.6995861876
  O         0.0240872334        5.8258203719        7.7194415312
  O         6.7450366473        0.0010969038        7.6997724462
  O         5.0619808035        2.9171909562        7.6995867245
  O         3.3715671041        5.8450690644        7.6995863038
  O         1.6969556491        0.9815629990       16.4107153120
  O         0.0127604893        3.8986878280       16.4107138425
  O        -1.6857828927        6.8130145495       16.4289245089
  O         5.0461748611        0.9815698808       16.4107132246
  O         3.3715686335        3.8931510422       16.4501776635
  O         1.6873697124        6.7991959945       16.4107137779
  O         8.4289192500        0.9732883168       16.4129845652
  O         6.7303750428        3.8986902855       16.4107130954
  O         5.0557713834        6.7992028112       16.4107153065
  O         0.0000663485        1.9466136926       25.1479690118
  O        -1.6857837228        4.8662138984       25.1479694252
  O        -3.3717629788        7.7864154313       25.1479692859
  O         3.3715683200        1.9465759458       25.1480248566
  O         1.6857844945        4.8664389645       25.1480250441
  O         0.0001953228        7.7864153422       25.1479693991
  O         6.7430704150        1.9466137072       25.1479690927
  O         5.0573520122        4.8664389267       25.1480249181
  O         3.3715683805        7.7862264306       25.1479690033
  O         0.0018221020       -0.0010518870       18.5851402541
  O        -1.6857850668        2.9219680873       18.5851377009
  O        -3.3690425044        5.8411842784       18.5944122764
  O         3.3715691506       -0.0029157690       18.5944123235
  O         1.6817133904        2.9175146606       18.5968308459
  O        -0.0025264815        5.8411860108       18.5944116208
  O         6.7413130716       -0.0010513717       18.5851377924
  O         5.0614226704        2.9175135592       18.5968310226
  O         3.3715670386        5.8444269329       18.5968308249
  O         1.6861277528        0.9736513418        1.1460773155
  O         0.0004866472        3.8932671390        1.1460773625
  O        -1.6857841894        6.8130151067        1.1457291489
  O         5.0570085970        0.9736515207        1.1460772048
  O         3.3715681755        3.8931513613        1.1459008257
  O         1.6859271624        6.8125357979        1.1460772253
  O         8.4289202980        0.9732878947        1.1456770054
  O         6.7426494621        3.8932673469        1.1460773381
  O         5.0572091488        6.8125357192        1.1460772816
  O         0.0041707751        1.9489852509        9.8752565057
  O        -1.6857864824        4.8697167530        9.8656189117
  O        -3.3687261110        7.7846620070        9.8656178602
  O         3.3715672483        2.0456800535        9.9398686327
  O         1.7716088281        4.8168881245        9.9398675642
  O        -0.0028394859        7.7846654553        9.8656192942
  O         6.7389658414        1.9489835226        9.8752561332
  O         4.9715249456        4.8168873643        9.9398686351
  O         3.3715666595        7.7814861319        9.8752566904
  O         0.0000095090       -0.0000054378       22.5797035908
  O        -1.6857836144        2.9198740037       22.5797035886
  O        -3.3717698089        5.8396102110       22.5806003454
  O         3.3715684676        0.0002332475       22.5806003925
  O         1.6857198939        2.9198262230       22.5809038318
  O         0.0002023607        5.8396102789       22.5805999187
  O         6.7431274338       -0.0000055011       22.5797038941
  O         5.0574173599        2.9198258433       22.5809034357
  O         3.3715683199        5.8398014692       22.5809039552
  O         1.6866416005        0.9720206518        5.1372213122
  O        -0.0006690361        3.8945277384        5.1372210541
  O        -1.6857835087        6.8130149332        5.1486911022
  O         5.0564947232        0.9720204751        5.1372215872
  O         3.3715684859        3.8931513426        5.1416970041
  O         1.6842576633        6.8129063600        5.1372210481
  O         8.4289200881        0.9732878270        5.1353330960
  O         6.7438050404        3.8945278585        5.1372217880
  O         5.0588780907        6.8129061066        5.1372212687
  O         0.0066149182        1.9503958971       13.8360567135
  O        -1.6857846479        4.8696221691       13.8639503744
  O        -3.3688089391        7.7847098819       13.8639515836
  O         3.3715645714        2.0349352645       13.7575957332
  O         1.7623098139        4.8222567300       13.7575968206
  O        -0.0027566868        7.7847121702       13.8639503750
  O         6.7365211147        1.9503948832       13.8360563477
  O         4.9808282657        4.8222628656       13.7575958635
  O         3.3715671938        7.7786643035       13.8360567665
