21
Zn3 In3 Ga3 O12
Ga 1.685908 2.919855 5.597908
Zn 1.685930 2.919599 20.476735
Ga 1.685797 0.973306 14.322735
Zn 1.686055 0.973292 3.027161
Ga 3.371664 1.946538 23.047422
Zn 3.371660 1.946899 11.752012
In 0.000897 0.000472 26.121237
In 1.686637 0.973331 8.671799
In 3.371721 1.945931 17.396584
O 0.000327 0.000007 3.590395
O 1.685934 2.919812 23.024556
O 1.685902 0.973650 12.315263
O 1.685974 0.973277 5.575033
O 3.371740 1.946261 21.039951
O 3.371589 1.946601 14.299855
O 0.000654 0.000021 7.580096
O 1.685928 2.919303 18.474512
O 1.685890 0.972839 16.304902
O 1.686544 0.973688 1.024919
O 3.372242 1.946915 25.029570
O 3.372273 1.946661 9.749760